*SPEF "IEEE 1481-1998"
*DESIGN "prbs_ber_top"
*DATE "Sat Apr 11 12:05:22 2026"
*VENDOR "Cadence Design Systems, Inc."
*PROGRAM "Innovus"
*VERSION "21.19-s058_1"
*DESIGN_FLOW "COUPLING C" "PIN_CAP NONE" "NAME_SCOPE LOCAL"
*DIVIDER /
*DELIMITER :
*BUS_DELIMITER []
*T_UNIT 1 NS
*C_UNIT 1 PF
*R_UNIT 1 OHM
*L_UNIT 1 HENRY

// MMMC spef file for corner 'WCCOM.setup_rc'

*NAME_MAP

*1 FE_PHN25_clear_count
*2 u_prbs_gen_top/u_prbs15_top/u_prbs15_core/FE_PHN24_seed_in_3
*3 u_prbs_gen_top/u_prbs7_top/u_prbs_core/FE_PHN23_seed_in_2
*4 u_prbs_gen_top/u_prbs7_top/u_prbs_core/FE_PHN22_seed_in_1
*5 u_prbs_gen_top/u_prbs7_top/u_prbs_core/FE_PHN21_seed_in_6
*6 FE_PHN20_clear_count
*7 FE_PHN19_clear_count
*8 u_prbs_gen_top/u_prbs15_top/u_prbs15_ctrl/FE_PHN18_seed_in_0
*9 u_prbs_gen_top/u_prbs15_top/u_prbs15_core/FE_PHN17_seed_in_1
*10 u_prbs_gen_top/u_prbs15_top/u_prbs15_core/FE_PHN16_seed_in_6
*11 u_prbs_gen_top/u_prbs15_top/u_prbs15_core/FE_PHN15_seed_in_2
*12 u_prbs_gen_top/FE_PHN14_seed_in_3
*13 u_prbs_gen_top/u_prbs15_top/u_prbs15_core/FE_PHN13_seed_in_13
*14 u_prbs_gen_top/u_prbs15_top/u_prbs15_core/FE_PHN12_seed_in_14
*15 u_prbs_gen_top/u_prbs15_top/u_prbs15_core/FE_PHN11_seed_in_7
*16 u_prbs_gen_top/u_prbs15_top/u_prbs15_core/FE_PHN10_seed_in_11
*17 u_prbs_gen_top/u_prbs15_top/u_prbs15_core/FE_PHN9_seed_in_10
*18 u_prbs_gen_top/u_prbs15_top/u_prbs15_core/FE_PHN8_seed_in_9
*19 u_prbs_gen_top/u_prbs15_top/u_prbs15_core/FE_PHN7_seed_in_8
*20 u_prbs_gen_top/u_prbs15_top/u_prbs15_core/FE_PHN6_seed_in_12
*21 u_prbs_gen_top/FE_PHN5_seed_in_4
*22 u_prbs_gen_top/FE_PHN4_seed_in_5
*23 FE_PHN3_rst_n
*24 u_prbs_gen_top/CTS_2
*25 u_prbs_gen_top/u_prbs15_top/u_prbs15_core/CTS_3
*26 u_prbs_gen_top/u_prbs15_top/u_prbs15_core/CTS_2
*27 u_prbs_gen_top/u_prbs15_top/u_prbs15_core/CTS_1
*28 CTS_7
*29 CTS_6
*30 CTS_10
*31 CTS_9
*32 CTS_8
*33 CTS_2
*34 CTS_1
*35 CTS_5
*36 CTS_4
*37 CTS_3
*38 FE_OFN19_rst_n
*39 clk
*40 rst_n
*41 en
*42 clear_count
*43 seed_load
*44 mode_select
*45 seed_in[14]
*46 seed_in[13]
*47 seed_in[12]
*48 seed_in[11]
*49 seed_in[10]
*50 seed_in[9]
*51 seed_in[8]
*52 seed_in[7]
*53 seed_in[6]
*54 seed_in[5]
*55 seed_in[4]
*56 seed_in[3]
*57 seed_in[2]
*58 seed_in[1]
*59 seed_in[0]
*60 input_select
*61 inject_error_enable
*62 ext_serial_in
*63 prbs_out
*64 checker_in
*65 checker_in_final
*66 bit_error
*67 error_count[31]
*68 error_count[30]
*69 error_count[29]
*70 error_count[28]
*71 error_count[27]
*72 error_count[26]
*73 error_count[25]
*74 error_count[24]
*75 error_count[23]
*76 error_count[22]
*77 error_count[21]
*78 error_count[20]
*79 error_count[19]
*80 error_count[18]
*81 error_count[17]
*82 error_count[16]
*83 error_count[15]
*84 error_count[14]
*85 error_count[13]
*86 error_count[12]
*87 error_count[11]
*88 error_count[10]
*89 error_count[9]
*90 error_count[8]
*91 error_count[7]
*92 error_count[6]
*93 error_count[5]
*94 error_count[4]
*95 error_count[3]
*96 error_count[2]
*97 error_count[1]
*98 error_count[0]
*99 total_count[31]
*100 total_count[30]
*101 total_count[29]
*102 total_count[28]
*103 total_count[27]
*104 total_count[26]
*105 total_count[25]
*106 total_count[24]
*107 total_count[23]
*108 total_count[22]
*109 total_count[21]
*110 total_count[20]
*111 total_count[19]
*112 total_count[18]
*113 total_count[17]
*114 total_count[16]
*115 total_count[15]
*116 total_count[14]
*117 total_count[13]
*118 total_count[12]
*119 total_count[11]
*120 total_count[10]
*121 total_count[9]
*122 total_count[8]
*123 total_count[7]
*124 total_count[6]
*125 total_count[5]
*126 total_count[4]
*127 total_count[3]
*128 total_count[2]
*129 total_count[1]
*130 total_count[0]
*131 inc_add_80_40_n_0
*132 inc_add_80_40_n_1
*133 inc_add_80_40_n_2
*134 inc_add_80_40_n_3
*135 inc_add_80_40_n_4
*136 inc_add_80_40_n_5
*137 inc_add_80_40_n_6
*138 inc_add_80_40_n_7
*139 inc_add_80_40_n_9
*140 inc_add_80_40_n_10
*141 inc_add_80_40_n_11
*142 inc_add_80_40_n_12
*143 inc_add_80_40_n_13
*144 inc_add_80_40_n_14
*145 inc_add_80_40_n_15
*146 inc_add_80_40_n_16
*147 inc_add_80_40_n_18
*148 inc_add_80_40_n_19
*149 inc_add_80_40_n_20
*150 inc_add_80_40_n_23
*151 inc_add_80_40_n_24
*152 inc_add_80_40_n_27
*153 inc_add_80_40_n_28
*154 inc_add_80_40_n_29
*155 inc_add_80_40_n_32
*156 inc_add_80_40_n_33
*157 inc_add_80_40_n_34
*158 inc_add_80_40_n_36
*159 inc_add_80_40_n_37
*160 inc_add_80_40_n_39
*161 inc_add_80_40_n_42
*162 inc_add_80_40_n_43
*163 inc_add_80_40_n_45
*164 inc_add_80_40_n_48
*165 inc_add_80_40_n_49
*166 inc_add_80_40_n_51
*167 inc_add_80_40_n_54
*168 inc_add_80_40_n_56
*169 inc_add_80_40_n_60
*170 inc_add_80_40_n_62
*171 inc_add_80_40_n_65
*172 inc_add_80_40_n_69
*173 inc_add_82_44_n_0
*174 inc_add_82_44_n_1
*175 inc_add_82_44_n_2
*176 inc_add_82_44_n_3
*177 inc_add_82_44_n_4
*178 inc_add_82_44_n_5
*179 inc_add_82_44_n_6
*180 inc_add_82_44_n_7
*181 inc_add_82_44_n_9
*182 inc_add_82_44_n_10
*183 inc_add_82_44_n_11
*184 inc_add_82_44_n_12
*185 inc_add_82_44_n_13
*186 inc_add_82_44_n_14
*187 inc_add_82_44_n_15
*188 inc_add_82_44_n_16
*189 inc_add_82_44_n_18
*190 inc_add_82_44_n_19
*191 inc_add_82_44_n_20
*192 inc_add_82_44_n_23
*193 inc_add_82_44_n_24
*194 inc_add_82_44_n_27
*195 inc_add_82_44_n_28
*196 inc_add_82_44_n_29
*197 inc_add_82_44_n_32
*198 inc_add_82_44_n_33
*199 inc_add_82_44_n_34
*200 inc_add_82_44_n_36
*201 inc_add_82_44_n_37
*202 inc_add_82_44_n_39
*203 inc_add_82_44_n_42
*204 inc_add_82_44_n_43
*205 inc_add_82_44_n_45
*206 inc_add_82_44_n_48
*207 inc_add_82_44_n_49
*208 inc_add_82_44_n_51
*209 inc_add_82_44_n_54
*210 inc_add_82_44_n_56
*211 inc_add_82_44_n_60
*212 inc_add_82_44_n_62
*213 inc_add_82_44_n_65
*214 inc_add_82_44_n_69
*215 logic_0_1_net
*216 logic_0_2_net
*217 n_0
*218 n_1
*219 n_2
*220 n_3
*221 n_4
*222 n_5
*223 n_6
*224 n_7
*225 n_8
*226 n_9
*227 n_10
*228 n_11
*229 n_12
*230 n_13
*231 n_14
*232 n_15
*233 n_16
*234 n_17
*235 n_18
*236 n_19
*237 n_20
*238 n_21
*239 n_22
*240 n_23
*241 n_24
*242 n_25
*243 n_26
*244 n_27
*245 n_28
*246 n_29
*247 n_30
*248 n_31
*249 n_32
*250 n_33
*251 n_34
*252 n_35
*253 n_36
*254 n_37
*255 n_38
*256 n_39
*257 n_40
*258 n_41
*259 n_42
*260 n_43
*261 n_44
*262 n_45
*263 n_46
*264 n_47
*265 n_48
*266 n_49
*267 n_50
*268 n_51
*269 n_52
*270 n_53
*271 n_54
*272 n_55
*273 n_56
*274 n_57
*275 n_58
*276 n_59
*277 n_60
*278 n_61
*279 n_62
*280 n_63
*281 n_64
*282 n_65
*283 n_68
*284 n_69
*285 n_70
*286 n_71
*287 n_72
*288 n_73
*289 n_74
*290 n_75
*291 n_76
*292 n_77
*293 n_78
*294 n_79
*295 n_80
*296 n_81
*297 n_82
*298 n_83
*299 n_84
*300 n_85
*301 n_86
*302 n_87
*303 n_88
*304 n_89
*305 n_90
*306 n_91
*307 n_92
*308 n_93
*309 n_94
*310 n_95
*311 n_96
*312 n_97
*313 n_98
*314 n_99
*315 n_100
*316 n_101
*317 n_102
*318 n_103
*319 n_104
*320 n_105
*321 n_106
*322 n_107
*323 n_108
*324 n_109
*325 n_110
*326 n_111
*327 n_112
*328 n_113
*329 n_114
*330 n_115
*331 n_116
*332 n_117
*333 n_118
*334 n_119
*335 n_120
*336 n_121
*337 n_122
*338 n_123
*339 n_124
*340 n_125
*341 n_126
*342 n_127
*343 n_128
*344 n_129
*345 n_130
*346 n_131
*347 u_prbs_gen_top/n_0
*348 u_prbs_gen_top/n_13
*349 u_prbs_gen_top/n_14
*350 u_prbs_gen_top/n_22
*351 u_prbs_gen_top/n_23
*352 u_prbs_gen_top/prbs7_out
*353 u_prbs_gen_top/prbs15_out
*354 u_prbs_gen_top/u_prbs7_top/seed_value[0]
*355 u_prbs_gen_top/u_prbs7_top/u_prbs_core/lfsr_q[5]
*356 u_prbs_gen_top/u_prbs7_top/u_prbs_core/lfsr_q[4]
*357 u_prbs_gen_top/u_prbs7_top/u_prbs_core/lfsr_q[3]
*358 u_prbs_gen_top/u_prbs7_top/u_prbs_core/lfsr_q[2]
*359 u_prbs_gen_top/u_prbs7_top/u_prbs_core/lfsr_q[1]
*360 u_prbs_gen_top/u_prbs7_top/u_prbs_core/lfsr_q[0]
*361 u_prbs_gen_top/u_prbs7_top/u_prbs_core/CLKGATE_rc_gclk
*362 u_prbs_gen_top/u_prbs7_top/u_prbs_core/UNCONNECTED
*363 u_prbs_gen_top/u_prbs7_top/u_prbs_core/logic_0_1_net
*364 u_prbs_gen_top/u_prbs7_top/u_prbs_core/n_0
*365 u_prbs_gen_top/u_prbs7_top/u_prbs_core/n_1
*366 u_prbs_gen_top/u_prbs7_top/u_prbs_core/n_2
*367 u_prbs_gen_top/u_prbs7_top/u_prbs_core/n_3
*368 u_prbs_gen_top/u_prbs7_top/u_prbs_core/n_4
*369 u_prbs_gen_top/u_prbs7_top/u_prbs_core/n_5
*370 u_prbs_gen_top/u_prbs7_top/u_prbs_core/n_6
*371 u_prbs_gen_top/u_prbs7_top/u_prbs_core/n_7
*372 u_prbs_gen_top/u_prbs7_top/u_prbs_core/n_8
*373 u_prbs_gen_top/u_prbs7_top/u_prbs_core/n_10
*374 u_prbs_gen_top/u_prbs7_top/u_prbs_ctrl/n_1
*375 u_prbs_gen_top/u_prbs7_top/u_prbs_ctrl/n_2
*376 u_prbs_gen_top/u_prbs15_top/seed_value[0]
*377 u_prbs_gen_top/u_prbs15_top/u_prbs15_core/lfsr_q[13]
*378 u_prbs_gen_top/u_prbs15_top/u_prbs15_core/lfsr_q[12]
*379 u_prbs_gen_top/u_prbs15_top/u_prbs15_core/lfsr_q[11]
*380 u_prbs_gen_top/u_prbs15_top/u_prbs15_core/lfsr_q[10]
*381 u_prbs_gen_top/u_prbs15_top/u_prbs15_core/lfsr_q[9]
*382 u_prbs_gen_top/u_prbs15_top/u_prbs15_core/lfsr_q[8]
*383 u_prbs_gen_top/u_prbs15_top/u_prbs15_core/lfsr_q[7]
*384 u_prbs_gen_top/u_prbs15_top/u_prbs15_core/lfsr_q[6]
*385 u_prbs_gen_top/u_prbs15_top/u_prbs15_core/lfsr_q[5]
*386 u_prbs_gen_top/u_prbs15_top/u_prbs15_core/lfsr_q[4]
*387 u_prbs_gen_top/u_prbs15_top/u_prbs15_core/lfsr_q[3]
*388 u_prbs_gen_top/u_prbs15_top/u_prbs15_core/lfsr_q[2]
*389 u_prbs_gen_top/u_prbs15_top/u_prbs15_core/lfsr_q[1]
*390 u_prbs_gen_top/u_prbs15_top/u_prbs15_core/lfsr_q[0]
*391 u_prbs_gen_top/u_prbs15_top/u_prbs15_core/UNCONNECTED8
*392 u_prbs_gen_top/u_prbs15_top/u_prbs15_core/logic_0_1_net
*393 u_prbs_gen_top/u_prbs15_top/u_prbs15_core/n_0
*394 u_prbs_gen_top/u_prbs15_top/u_prbs15_core/n_1
*395 u_prbs_gen_top/u_prbs15_top/u_prbs15_core/n_2
*396 u_prbs_gen_top/u_prbs15_top/u_prbs15_core/n_3
*397 u_prbs_gen_top/u_prbs15_top/u_prbs15_core/n_4
*398 u_prbs_gen_top/u_prbs15_top/u_prbs15_core/n_5
*399 u_prbs_gen_top/u_prbs15_top/u_prbs15_core/n_6
*400 u_prbs_gen_top/u_prbs15_top/u_prbs15_core/n_7
*401 u_prbs_gen_top/u_prbs15_top/u_prbs15_core/n_8
*402 u_prbs_gen_top/u_prbs15_top/u_prbs15_core/n_9
*403 u_prbs_gen_top/u_prbs15_top/u_prbs15_core/n_10
*404 u_prbs_gen_top/u_prbs15_top/u_prbs15_core/n_11
*405 u_prbs_gen_top/u_prbs15_top/u_prbs15_core/n_12
*406 u_prbs_gen_top/u_prbs15_top/u_prbs15_core/n_13
*407 u_prbs_gen_top/u_prbs15_top/u_prbs15_core/n_14
*408 u_prbs_gen_top/u_prbs15_top/u_prbs15_core/n_15
*409 u_prbs_gen_top/u_prbs15_top/u_prbs15_core/n_16
*410 u_prbs_gen_top/u_prbs15_top/u_prbs15_core/n_18
*411 u_prbs_gen_top/u_prbs15_top/u_prbs15_ctrl/n_1
*412 u_prbs_gen_top/u_prbs15_top/u_prbs15_ctrl/n_2
*413 u_prbs_gen_top/u_prbs15_top/u_prbs15_ctrl/n_3
*414 u_prbs_gen_top/u_prbs15_top/u_prbs15_ctrl/n_4
*415 u_prbs_gen_top/u_prbs15_top/u_prbs15_ctrl/n_5
*416 ref_bit
*417 FE_PHC25_clear_count
*418 FE_PHC20_clear_count
*419 FE_PHC19_clear_count
*420 FE_PHC3_rst_n
*421 CTS_ccl_a_buf_00010
*422 CTS_ccl_a_buf_00009
*423 CTS_ccl_a_buf_00008
*424 CTS_ccl_a_buf_00007
*425 CTS_ccl_a_buf_00006
*426 CTS_ccl_a_buf_00005
*427 CTS_ccl_a_buf_00004
*428 CTS_ccl_a_buf_00003
*429 FE_OFC2_rst_n
*430 FE_OFC1_add_82_44_n_18
*431 CLKGATE_RC_CG_HIER_INST0/RC_CGIC_INST
*432 CLKGATE_RC_CG_HIER_INST1/RC_CGIC_INST
*433 u_prbs_gen_top/FE_PHC14_seed_in_3
*434 u_prbs_gen_top/FE_PHC5_seed_in_4
*435 u_prbs_gen_top/FE_PHC4_seed_in_5
*436 u_prbs_gen_top/FE_RC_0_0
*437 u_prbs_gen_top/CTS_ccl_a_buf_00011
*438 u_prbs_gen_top/u_prbs7_top/u_prbs_core/FE_PHC23_seed_in_2
*439 u_prbs_gen_top/u_prbs7_top/u_prbs_core/FE_PHC22_seed_in_1
*440 u_prbs_gen_top/u_prbs7_top/u_prbs_core/FE_PHC21_seed_in_6
*441 u_prbs_gen_top/u_prbs7_top/u_prbs_core/CLKGATE_RC_CG_HIER_INST2/RC_CGIC_INST
*442 u_prbs_gen_top/u_prbs7_top/u_prbs_core/lfsr_q_reg\[4\]
*443 u_prbs_gen_top/u_prbs7_top/u_prbs_core/g161__2398
*444 u_prbs_gen_top/u_prbs7_top/u_prbs_core/lfsr_q_reg\[3\]
*445 u_prbs_gen_top/u_prbs7_top/u_prbs_core/g163__5107
*446 u_prbs_gen_top/u_prbs7_top/u_prbs_core/lfsr_q_reg\[2\]
*447 u_prbs_gen_top/u_prbs7_top/u_prbs_core/g165__6260
*448 u_prbs_gen_top/u_prbs7_top/u_prbs_core/lfsr_q_reg\[1\]
*449 u_prbs_gen_top/u_prbs7_top/u_prbs_core/g167__4319
*450 u_prbs_gen_top/u_prbs7_top/u_prbs_core/g168__8428
*451 u_prbs_gen_top/u_prbs7_top/u_prbs_core/g169
*452 u_prbs_gen_top/u_prbs7_top/u_prbs_core/lfsr_q_reg\[0\]
*453 u_prbs_gen_top/u_prbs7_top/u_prbs_core/g135__5526
*454 u_prbs_gen_top/u_prbs7_top/u_prbs_core/g136__6783
*455 u_prbs_gen_top/u_prbs7_top/u_prbs_core/lfsr_q_reg\[5\]
*456 u_prbs_gen_top/u_prbs7_top/u_prbs_core/lfsr_q_reg\[6\]
*457 u_prbs_gen_top/u_prbs7_top/u_prbs_core/g138__3680
*458 u_prbs_gen_top/u_prbs7_top/u_prbs_core/g139__1617
*459 u_prbs_gen_top/u_prbs7_top/u_prbs_core/tie_0_cell
*460 u_prbs_gen_top/u_prbs7_top/u_prbs_ctrl/g69__2802
*461 u_prbs_gen_top/u_prbs7_top/u_prbs_ctrl/g70__1705
*462 u_prbs_gen_top/u_prbs7_top/u_prbs_ctrl/g71__5122
*463 u_prbs_gen_top/u_prbs15_top/u_prbs15_core/FE_PHC24_seed_in_3
*464 u_prbs_gen_top/u_prbs15_top/u_prbs15_core/FE_PHC17_seed_in_1
*465 u_prbs_gen_top/u_prbs15_top/u_prbs15_core/FE_PHC16_seed_in_6
*466 u_prbs_gen_top/u_prbs15_top/u_prbs15_core/FE_PHC15_seed_in_2
*467 u_prbs_gen_top/u_prbs15_top/u_prbs15_core/FE_PHC13_seed_in_13
*468 u_prbs_gen_top/u_prbs15_top/u_prbs15_core/FE_PHC12_seed_in_14
*469 u_prbs_gen_top/u_prbs15_top/u_prbs15_core/FE_PHC11_seed_in_7
*470 u_prbs_gen_top/u_prbs15_top/u_prbs15_core/FE_PHC10_seed_in_11
*471 u_prbs_gen_top/u_prbs15_top/u_prbs15_core/FE_PHC9_seed_in_10
*472 u_prbs_gen_top/u_prbs15_top/u_prbs15_core/FE_PHC8_seed_in_9
*473 u_prbs_gen_top/u_prbs15_top/u_prbs15_core/FE_PHC7_seed_in_8
*474 u_prbs_gen_top/u_prbs15_top/u_prbs15_core/FE_PHC6_seed_in_12
*475 u_prbs_gen_top/u_prbs15_top/u_prbs15_core/CTS_ccl_a_buf_00002
*476 u_prbs_gen_top/u_prbs15_top/u_prbs15_core/CTS_ccl_a_buf_00001
*477 u_prbs_gen_top/u_prbs15_top/u_prbs15_core/CLKGATE_RC_CG_HIER_INST3/RC_CGIC_INST
*478 u_prbs_gen_top/u_prbs15_top/u_prbs15_core/lfsr_q_reg\[12\]
*479 u_prbs_gen_top/u_prbs15_top/u_prbs15_core/g308__8246
*480 u_prbs_gen_top/u_prbs15_top/u_prbs15_core/lfsr_q_reg\[11\]
*481 u_prbs_gen_top/u_prbs15_top/u_prbs15_core/g310__7098
*482 u_prbs_gen_top/u_prbs15_top/u_prbs15_core/lfsr_q_reg\[10\]
*483 u_prbs_gen_top/u_prbs15_top/u_prbs15_core/g312__6131
*484 u_prbs_gen_top/u_prbs15_top/u_prbs15_core/lfsr_q_reg\[9\]
*485 u_prbs_gen_top/u_prbs15_top/u_prbs15_core/g314__1881
*486 u_prbs_gen_top/u_prbs15_top/u_prbs15_core/lfsr_q_reg\[8\]
*487 u_prbs_gen_top/u_prbs15_top/u_prbs15_core/g316__5115
*488 u_prbs_gen_top/u_prbs15_top/u_prbs15_core/lfsr_q_reg\[7\]
*489 u_prbs_gen_top/u_prbs15_top/u_prbs15_core/g318__7482
*490 u_prbs_gen_top/u_prbs15_top/u_prbs15_core/lfsr_q_reg\[6\]
*491 u_prbs_gen_top/u_prbs15_top/u_prbs15_core/g320__4733
*492 u_prbs_gen_top/u_prbs15_top/u_prbs15_core/lfsr_q_reg\[5\]
*493 u_prbs_gen_top/u_prbs15_top/u_prbs15_core/g322__6161
*494 u_prbs_gen_top/u_prbs15_top/u_prbs15_core/lfsr_q_reg\[4\]
*495 u_prbs_gen_top/u_prbs15_top/u_prbs15_core/g324__9315
*496 u_prbs_gen_top/u_prbs15_top/u_prbs15_core/lfsr_q_reg\[3\]
*497 u_prbs_gen_top/u_prbs15_top/u_prbs15_core/g326__9945
*498 u_prbs_gen_top/u_prbs15_top/u_prbs15_core/lfsr_q_reg\[2\]
*499 u_prbs_gen_top/u_prbs15_top/u_prbs15_core/g328__2883
*500 u_prbs_gen_top/u_prbs15_top/u_prbs15_core/lfsr_q_reg\[1\]
*501 u_prbs_gen_top/u_prbs15_top/u_prbs15_core/g330__2346
*502 u_prbs_gen_top/u_prbs15_top/u_prbs15_core/g331__1666
*503 u_prbs_gen_top/u_prbs15_top/u_prbs15_core/g332
*504 u_prbs_gen_top/u_prbs15_top/u_prbs15_core/lfsr_q_reg\[0\]
*505 u_prbs_gen_top/u_prbs15_top/u_prbs15_core/g215__7410
*506 u_prbs_gen_top/u_prbs15_top/u_prbs15_core/g216__6417
*507 u_prbs_gen_top/u_prbs15_top/u_prbs15_core/lfsr_q_reg\[13\]
*508 u_prbs_gen_top/u_prbs15_top/u_prbs15_core/lfsr_q_reg\[14\]
*509 u_prbs_gen_top/u_prbs15_top/u_prbs15_core/g218__5477
*510 u_prbs_gen_top/u_prbs15_top/u_prbs15_core/g219__2398
*511 u_prbs_gen_top/u_prbs15_top/u_prbs15_core/tie_0_cell
*512 u_prbs_gen_top/u_prbs15_top/u_prbs15_ctrl/FE_PHC18_seed_in_0
*513 u_prbs_gen_top/u_prbs15_top/u_prbs15_ctrl/g261__5107
*514 u_prbs_gen_top/u_prbs15_top/u_prbs15_ctrl/g262__6260
*515 u_prbs_gen_top/u_prbs15_top/u_prbs15_ctrl/g263__4319
*516 u_prbs_gen_top/u_prbs15_top/u_prbs15_ctrl/g264__8428
*517 u_prbs_gen_top/u_prbs15_top/u_prbs15_ctrl/g265__5526
*518 u_prbs_gen_top/u_prbs15_top/u_prbs15_ctrl/g266__6783
*519 u_prbs_gen_top/g91__1617
*520 u_prbs_gen_top/g92__2802
*521 u_prbs_gen_top/g93__1705
*522 u_prbs_gen_top/g94__5122
*523 u_prbs_gen_top/g95
*524 g646__8246
*525 g647__7098
*526 g648__6131
*527 g649__1881
*528 g650__5115
*529 g651__7482
*530 g652__4733
*531 error_count_reg\[0\]
*532 error_count_reg\[1\]
*533 error_count_reg\[2\]
*534 error_count_reg\[3\]
*535 error_count_reg\[4\]
*536 error_count_reg\[5\]
*537 error_count_reg\[6\]
*538 error_count_reg\[7\]
*539 error_count_reg\[8\]
*540 error_count_reg\[9\]
*541 error_count_reg\[10\]
*542 error_count_reg\[11\]
*543 error_count_reg\[12\]
*544 error_count_reg\[13\]
*545 error_count_reg\[14\]
*546 error_count_reg\[15\]
*547 error_count_reg\[16\]
*548 error_count_reg\[17\]
*549 error_count_reg\[18\]
*550 error_count_reg\[19\]
*551 error_count_reg\[20\]
*552 error_count_reg\[21\]
*553 error_count_reg\[22\]
*554 error_count_reg\[23\]
*555 error_count_reg\[24\]
*556 error_count_reg\[25\]
*557 error_count_reg\[26\]
*558 error_count_reg\[27\]
*559 error_count_reg\[28\]
*560 error_count_reg\[29\]
*561 error_count_reg\[30\]
*562 error_count_reg\[31\]
*563 total_count_reg\[0\]
*564 total_count_reg\[1\]
*565 total_count_reg\[2\]
*566 total_count_reg\[3\]
*567 total_count_reg\[4\]
*568 total_count_reg\[5\]
*569 total_count_reg\[6\]
*570 total_count_reg\[7\]
*571 total_count_reg\[8\]
*572 total_count_reg\[9\]
*573 total_count_reg\[10\]
*574 total_count_reg\[11\]
*575 total_count_reg\[12\]
*576 total_count_reg\[13\]
*577 total_count_reg\[14\]
*578 total_count_reg\[15\]
*579 total_count_reg\[16\]
*580 total_count_reg\[17\]
*581 total_count_reg\[18\]
*582 total_count_reg\[19\]
*583 total_count_reg\[20\]
*584 total_count_reg\[21\]
*585 total_count_reg\[22\]
*586 total_count_reg\[23\]
*587 total_count_reg\[24\]
*588 total_count_reg\[25\]
*589 total_count_reg\[26\]
*590 total_count_reg\[27\]
*591 total_count_reg\[28\]
*592 total_count_reg\[29\]
*593 total_count_reg\[30\]
*594 total_count_reg\[31\]
*595 g1110__6161
*596 g1111__9315
*597 g1112__9945
*598 g1113__2883
*599 g1114__2346
*600 g1115__1666
*601 g1116__7410
*602 g1117__6417
*603 g1118__5477
*604 g1119__2398
*605 g1120__5107
*606 g1121__6260
*607 g1122__4319
*608 g1123__8428
*609 g1124__5526
*610 g1125__6783
*611 g1126__3680
*612 g1127__1617
*613 g1128__2802
*614 g1129__1705
*615 g1130__5122
*616 g1131__8246
*617 g1132__7098
*618 g1133__6131
*619 g1134__1881
*620 g1135__5115
*621 g1136__7482
*622 g1137__4733
*623 g1138__6161
*624 g1139__9315
*625 g1140__9945
*626 g1141__2883
*627 g1142__2346
*628 g1143__1666
*629 g1144__7410
*630 g1145__6417
*631 g1146__5477
*632 g1147__2398
*633 g1148__5107
*634 g1149__6260
*635 g1150__4319
*636 g1151__8428
*637 g1152__5526
*638 g1153__6783
*639 g1154__3680
*640 g1155__1617
*641 g1156__2802
*642 g1157__1705
*643 g1158__5122
*644 g1159__8246
*645 g1160__7098
*646 g1161__6131
*647 g1162__1881
*648 g1163__5115
*649 g1164__7482
*650 g1165__4733
*651 g1166__6161
*652 g1167__9315
*653 g1168__9945
*654 g1169__2883
*655 g1170__2346
*656 g1171__1666
*657 g1172__7410
*658 g1173__6417
*659 inc_add_80_40_g479__5477
*660 inc_add_80_40_g480__2398
*661 inc_add_80_40_g481__5107
*662 inc_add_80_40_g482__6260
*663 inc_add_80_40_g483__4319
*664 inc_add_80_40_g484__8428
*665 inc_add_80_40_g485__5526
*666 inc_add_80_40_g486__6783
*667 inc_add_80_40_g487__3680
*668 inc_add_80_40_g488__1617
*669 inc_add_80_40_g489__2802
*670 inc_add_80_40_g490__1705
*671 inc_add_80_40_g491__5122
*672 inc_add_80_40_g492__8246
*673 inc_add_80_40_g493__7098
*674 inc_add_80_40_g494__6131
*675 inc_add_80_40_g495__1881
*676 inc_add_80_40_g496__5115
*677 inc_add_80_40_g497__7482
*678 inc_add_80_40_g498__4733
*679 inc_add_80_40_g499__6161
*680 inc_add_80_40_g500__9315
*681 inc_add_80_40_g501__9945
*682 inc_add_80_40_g502__2883
*683 inc_add_80_40_g503__2346
*684 inc_add_80_40_g504__1666
*685 inc_add_80_40_g505__7410
*686 inc_add_80_40_g506__6417
*687 inc_add_80_40_g507__5477
*688 inc_add_80_40_g508__2398
*689 inc_add_80_40_g509
*690 inc_add_80_40_g510__5107
*691 inc_add_80_40_g511__6260
*692 inc_add_80_40_g512__4319
*693 inc_add_80_40_g513__8428
*694 inc_add_80_40_g515__5526
*695 inc_add_80_40_g516__6783
*696 inc_add_80_40_g517__3680
*697 inc_add_80_40_g518
*698 inc_add_80_40_g519__1617
*699 inc_add_80_40_g520__2802
*700 inc_add_80_40_g521__1705
*701 inc_add_80_40_g522
*702 inc_add_80_40_g523__5122
*703 inc_add_80_40_g524__8246
*704 inc_add_80_40_g525
*705 inc_add_80_40_g526__7098
*706 inc_add_80_40_g527__6131
*707 inc_add_80_40_g528__1881
*708 inc_add_80_40_g529__5115
*709 inc_add_80_40_g530__7482
*710 inc_add_80_40_g531__4733
*711 inc_add_80_40_g532__6161
*712 inc_add_80_40_g533__9315
*713 inc_add_80_40_g534__9945
*714 inc_add_80_40_g535__2883
*715 inc_add_82_44_g479__2346
*716 inc_add_82_44_g480__1666
*717 inc_add_82_44_g481__7410
*718 inc_add_82_44_g482__6417
*719 inc_add_82_44_g483__5477
*720 inc_add_82_44_g484__2398
*721 inc_add_82_44_g485__5107
*722 inc_add_82_44_g486__6260
*723 inc_add_82_44_g487__4319
*724 inc_add_82_44_g488__8428
*725 inc_add_82_44_g489__5526
*726 inc_add_82_44_g490__6783
*727 inc_add_82_44_g491__3680
*728 inc_add_82_44_g492__1617
*729 inc_add_82_44_g493__2802
*730 inc_add_82_44_g494__1705
*731 inc_add_82_44_g495__5122
*732 inc_add_82_44_g496__8246
*733 inc_add_82_44_g497__7098
*734 inc_add_82_44_g498__6131
*735 inc_add_82_44_g499__1881
*736 inc_add_82_44_g500__5115
*737 inc_add_82_44_g501__7482
*738 inc_add_82_44_g502__4733
*739 inc_add_82_44_g503__6161
*740 inc_add_82_44_g504__9315
*741 inc_add_82_44_g505__9945
*742 inc_add_82_44_g506__2883
*743 inc_add_82_44_g507__2346
*744 inc_add_82_44_g508__1666
*745 inc_add_82_44_g509
*746 inc_add_82_44_g510__7410
*747 inc_add_82_44_g511__6417
*748 inc_add_82_44_g512__5477
*749 inc_add_82_44_g513__2398
*750 inc_add_82_44_g515__5107
*751 inc_add_82_44_g516__6260
*752 inc_add_82_44_g517__4319
*753 inc_add_82_44_g519__8428
*754 inc_add_82_44_g520__5526
*755 inc_add_82_44_g521__6783
*756 inc_add_82_44_g522
*757 inc_add_82_44_g523__3680
*758 inc_add_82_44_g524__1617
*759 inc_add_82_44_g525
*760 inc_add_82_44_g526__2802
*761 inc_add_82_44_g527__1705
*762 inc_add_82_44_g528__5122
*763 inc_add_82_44_g529__8246
*764 inc_add_82_44_g530__7098
*765 inc_add_82_44_g531__6131
*766 inc_add_82_44_g532__1881
*767 inc_add_82_44_g533__5115
*768 inc_add_82_44_g534__7482
*769 inc_add_82_44_g535__4733
*770 tie_0_cell
*771 tie_0_cell1


*PORTS

*39 I *C 999.88 0
*40 I *C 955.64 0
*41 I *C 911.4 0
*42 I *C 866.6 0
*43 I *C 822.36 0
*44 I *C 778.12 0
*45 I *C 733.32 0
*46 I *C 689.08 0
*47 I *C 644.84 0
*48 I *C 600.04 0
*49 I *C 555.8 0
*50 I *C 511.56 0
*51 I *C 466.76 0
*52 I *C 422.52 0
*53 I *C 378.28 0
*54 I *C 333.48 0
*55 I *C 289.24 0
*56 I *C 244.44 0
*57 I *C 200.2 0
*58 I *C 155.96 0
*59 I *C 111.16 0
*60 I *C 66.92 0
*61 I *C 22.68 0
*62 I *C 978.04 0
*63 O *C 933.8 0
*64 O *C 889.56 0
*65 O *C 844.76 0
*416 O *C 800.52 0
*66 O *C 756.28 0
*67 O *C 711.48 0
*68 O *C 667.24 0
*69 O *C 622.44 0
*70 O *C 578.2 0
*71 O *C 533.96 0
*72 O *C 489.16 0
*73 O *C 444.92 0
*74 O *C 400.68 0
*75 O *C 355.88 0
*76 O *C 311.64 0
*77 O *C 267.4 0
*78 O *C 222.6 0
*79 O *C 178.36 0
*80 O *C 134.12 0
*81 O *C 89.32 0
*82 O *C 45.08 0
*83 O *C 0.84 0
*84 O *C 999.88 0
*85 O *C 956.76 0
*86 O *C 913.08 0
*87 O *C 869.96 0
*88 O *C 826.28 0
*89 O *C 782.6 0
*90 O *C 739.48 0
*91 O *C 695.8 0
*92 O *C 652.12 0
*93 O *C 609 0
*94 O *C 565.32 0
*95 O *C 522.2 0
*96 O *C 478.52 0
*97 O *C 434.84 0
*98 O *C 391.72 0
*99 O *C 348.04 0
*100 O *C 304.36 0
*101 O *C 261.24 0
*102 O *C 217.56 0
*103 O *C 174.44 0
*104 O *C 130.76 0
*105 O *C 87.08 0
*106 O *C 43.96 0
*107 O *C 0.28 0
*108 O *C 957.32 0
*109 O *C 913.64 0
*110 O *C 870.52 0
*111 O *C 826.84 0
*112 O *C 783.16 0
*113 O *C 740.04 0
*114 O *C 696.36 0
*115 O *C 652.68 0
*116 O *C 609.56 0
*117 O *C 565.88 0
*118 O *C 522.76 0
*119 O *C 479.08 0
*120 O *C 435.4 0
*121 O *C 392.28 0
*122 O *C 348.6 0
*123 O *C 304.92 0
*124 O *C 261.8 0
*125 O *C 218.12 0
*126 O *C 175 0
*127 O *C 131.32 0
*128 O *C 87.64 0
*129 O *C 44.52 0
*130 O *C 0.84 0


*D_NET *1 0.00186168

*CONN
*I *417:Z O *C 507.64 133.28 *L 0 *D DEL0BWP7T
*I *638:B1 I *C 498.68 132.16 *L 0.00431 *D INR2D1BWP7T

*CAP
1 *1:2 0.000274506
2 *1:4 0.000184139
3 *1:5 0.00140304

*RES
1 *638:B1 *1:2 6.98354
2 *1:2 *1:3 0.20779
3 *1:5 *1:3 10.3086596
4 *1:4 *1:5 6.98354
5 *417:Z *1:4 6.98354
*END

*D_NET *2 0.00067599

*CONN
*I *463:Z O *C 493.64 188.16 *L 0 *D DEL015BWP7T
*I *497:I1 I *C 490.28 187.04 *L 0.00385 *D CKMUX2D1BWP7T

*CAP
1 *2:3 0.00053717
2 *2:4 0.000138819

*RES
1 *497:I1 *2:4 6.98348808
2 *2:4 *2:3 0.194897
3 *2:3 *2:2 1.25985
4 *463:Z *2:2 6.98348808
*END

*D_NET *3 0.0002446

*CONN
*I *438:Z O *C 528.92 177.52 *L 0 *D DEL01BWP7T
*I *447:I1 I *C 530.6 179.2 *L 0.00385 *D CKMUX2D1BWP7T

*CAP
1 *3:2 5.2439e-05
2 *3:3 0.00019216

*RES
1 *447:I1 *3:2 6.98348808
2 *3:3 *3:2 0.597586
3 *438:Z *3:3 6.98348808
*END

*D_NET *4 0.00069368

*CONN
*I *439:Z O *C 550.76 169.68 *L 0 *D DEL01BWP7T
*I *450:I1 I *C 547.4 171.36 *L 0.00385 *D CKMUX2D1BWP7T

*CAP
1 *4:2 6.40976e-05
2 *4:3 0.00046421
3 *4:4 0.000165369

*RES
1 *4:4 *4:3 0.194897
2 *4:3 *4:2 1.24696
3 *439:Z *4:2 6.98348808
4 *450:I1 *4:4 6.98348808
*END

*D_NET *5 0.00127914

*CONN
*I *440:Z O *C 556.92 154 *L 0 *D DEL01BWP7T
*I *458:I1 I *C 551.32 155.68 *L 0.00385 *D CKMUX2D1BWP7T

*CAP
1 *5:2 0.000101939
2 *5:3 0.000201855
3 *5:4 0.000116375
4 *5:5 0.000186073
5 *5:6 0.0006729

*RES
1 *5:4 *5:2 7.17839
2 *5:2 *458:I1 0.126453
3 *5:3 *5:4 0.220753
4 *5:6 *5:3 8.85389709
5 *5:5 *5:6 6.98344
6 *440:Z *5:5 6.98344
*END

*D_NET *6 0.0739402

*CONN
*I *418:Z O *C 512.68 132.72 *L 0 *D BUFFD1P5BWP7T
*I *641:B1 I *C 433.16 155.68 *L 0.00431 *D INR2D1BWP7T
*I *607:B1 I *C 432.6 132.16 *L 0.00431 *D INR2D1BWP7T
*I *640:B1 I *C 336.28 143.36 *L 0.00431 *D INR2D1BWP7T
*I *657:B1 I *C 302.12 155.68 *L 0.00431 *D INR2D1BWP7T
*I *634:B1 I *C 224.28 163.52 *L 0.00431 *D INR2D1BWP7T
*I *615:B1 I *C 198.52 140 *L 0.00431 *D INR2D1BWP7T
*I *619:B1 I *C 195.72 155.68 *L 0.00431 *D INR2D1BWP7T
*I *613:B1 I *C 185.64 135.52 *L 0.00431 *D INR2D1BWP7T
*I *650:A2 I *C 154.84 135.52 *L 0.00382 *D NR2XD0BWP7T
*I *653:B1 I *C 166.04 135.52 *L 0.00431 *D INR2D1BWP7T
*I *651:B1 I *C 156.52 151.2 *L 0.00431 *D INR2D1BWP7T
*I *652:B1 I *C 164.36 151.2 *L 0.00431 *D INR2D1BWP7T
*I *610:B1 I *C 182.28 151.2 *L 0.00431 *D INR2D1BWP7T
*I *654:B1 I *C 206.92 143.36 *L 0.00431 *D INR2D1BWP7T
*I *655:B1 I *C 214.2 147.84 *L 0.00431 *D INR2D1BWP7T
*I *632:B1 I *C 223.16 147.84 *L 0.00431 *D INR2D1BWP7T
*I *631:B1 I *C 237.16 151.2 *L 0.00431 *D INR2D1BWP7T
*I *629:B1 I *C 235.48 140 *L 0.00431 *D INR2D1BWP7T
*I *598:B1 I *C 238.28 143.36 *L 0.00431 *D INR2D1BWP7T
*I *608:B1 I *C 249.48 151.2 *L 0.00431 *D INR2D1BWP7T
*I *635:B1 I *C 266.84 151.2 *L 0.00431 *D INR2D1BWP7T
*I *656:B1 I *C 279.16 151.2 *L 0.00431 *D INR2D1BWP7T
*I *636:B1 I *C 277.48 143.36 *L 0.00431 *D INR2D1BWP7T
*I *644:B1 I *C 301.56 143.36 *L 0.00431 *D INR2D1BWP7T
*I *637:B1 I *C 322.28 147.84 *L 0.00431 *D INR2D1BWP7T
*I *599:B1 I *C 347.48 147.84 *L 0.00431 *D INR2D1BWP7T
*I *605:A2 I *C 406.28 151.2 *L 0.00382 *D NR2XD0BWP7T
*I *642:B1 I *C 450.52 151.2 *L 0.00431 *D INR2D1BWP7T
*I *645:B1 I *C 462.28 151.2 *L 0.00431 *D INR2D1BWP7T
*I *633:B1 I *C 472.92 155.68 *L 0.00431 *D INR2D1BWP7T
*I *627:B1 I *C 490.28 147.84 *L 0.00431 *D INR2D1BWP7T

*CAP
1 *641:B1 5.556e-05
2 *640:B1 0.00103183
3 *657:B1 5.041e-05
4 *615:B1 0.00011452
5 *613:B1 5.99e-05
6 *650:A2 0.00028839
7 *653:B1 1.582e-05
8 *651:B1 0.00011221
9 *654:B1 5.936e-05
10 *608:B1 0.00012141
11 *636:B1 0.00015767
12 *644:B1 7.78e-06
13 *599:B1 8.25e-06
14 *642:B1 9.892e-05
15 *645:B1 0.00042462
16 *627:B1 4.582e-05
17 *6:32 0.00010954
18 *6:33 0.00021835
19 *6:34 0.00020579
20 *6:35 0.0011715
21 *6:36 6.009e-05
22 *6:37 2.168e-05
23 *6:38 0.00042525
24 *6:39 0.00129157
25 *6:40 1.169e-05
26 *6:41 7.522e-05
27 *6:42 0.00044382
28 *6:43 0.00034248
29 *6:44 0.00055609
30 *6:45 0.00022101
31 *6:46 0.00032057
32 *6:47 0.00050208
33 *6:48 0.0001603
34 *6:49 0.00086567
35 *6:50 0.00070976
36 *6:51 5.251e-05
37 *6:52 0.0005846
38 *6:53 0.00044214
39 *6:54 0.00023796
40 *6:55 0.00125101
41 *6:56 0.00099167
42 *6:57 0.00048997
43 *6:58 0.00043771
44 *6:59 4.247e-05
45 *6:60 3.961e-05
46 *6:61 0.00316944
47 *6:62 0.00067747
48 *6:63 5.5e-05
49 *6:64 0.00083435
50 *6:65 0.00072493
51 *6:66 0.00014111
52 *6:67 3.836e-05
53 *6:68 0.00013608
54 *6:69 0.00084381
55 *6:70 0.00164586
56 *6:71 3.73e-05
57 *6:72 7.342e-05
58 *6:73 7.36e-06
59 *6:74 9.426e-05
60 *6:75 0.00052115
61 *6:76 0.00013728
62 *6:77 0.00116719
63 *6:78 0.00028215
64 *6:79 0.00016609
65 *6:80 0.00015725
66 *6:81 7.038e-05
67 *6:82 0.0008688
68 *6:83 0.00082032
69 *6:84 0.00014193
70 *6:85 0.00081271
71 *6:86 4e-08
72 *6:89 3.612e-05
73 *6:91 6.91e-06
74 *6:92 3.465e-05
75 *6:93 0.00014251
76 *6:94 7.07e-06
77 *6:95 0.00151371
78 *6:96 0.00015208
79 *6:97 0.00013253
80 *6:98 0.00013791
81 *6:100 0.00120664
82 *6:101 0.00034395
83 *6:102 0.00044195
84 *6:103 1.896e-05
85 *6:104 0.00093835
86 *6:105 0.00015052
87 *6:106 0.00044779
88 *6:107 0.00041268
89 *6:108 0.0006853
90 *6:109 0.00079456
91 *6:111 0.00015801
92 *6:112 0.00210148
93 *6:113 9.382e-05
94 *6:114 8.17e-05
95 *6:115 3.834e-05
96 *6:116 8.197e-05
97 *6:117 0.00047177
98 *6:118 2.506e-05
99 *6:119 7.627e-05
100 *6:122 0.00018292
101 *6:123 0.0007107
102 *6:124 0.00061145
103 *6:125 0.00046694
104 *6:126 0.00030484
105 *6:127 0.00042787
106 *6:128 0.00013318
107 *6:129 0.00024238
108 *6:130 0.00070256
109 *6:131 0.00048564
110 *6:132 5.2e-06
111 *6:134 0.00063122
112 *6:135 1.335e-05
113 *6:136 0.00048406
114 *6:137 0.00084756
115 *6:138 0.00122899
116 *6:139 0.00046651
117 *6:140 0.00029545
118 *6:141 5.204e-05
119 *6:143 0.00025906
120 *6:144 0.00021966
121 *6:145 0.00115501
122 *6:146 0.00059541
123 *6:147 0.00039198
124 *6:148 4.409e-05
125 *6:149 0.00051157
126 *6:150 3.71e-06
127 *6:151 0.00101145
128 *6:152 0.00014041
129 *6:153 0.00062033
130 *6:154 0.00012827
131 *6:155 2.834e-05
132 *6:156 0.00139364
133 *6:157 0.00024329
134 *6:158 0.0008552
135 *6:159 0.00065955
136 *6:160 7.283e-05
137 *6:161 0.00016398
138 *6:162 0.00124248
139 *6:163 6.505e-05
140 *6:164 0.00036304
141 *6:165 0.00087828
142 *6:166 9.86e-06
143 *6:167 3.566e-05
144 *6:168 0.00014257
145 *6:169 4.493e-05
146 *6:170 4.587e-05
147 *6:172 0.00018362
148 *6:173 0.00044198
149 *6:174 0.00010576
150 *6:175 0.00078322
151 *6:176 0.00017246
152 *6:177 0.00139895
153 *6:178 4.98e-06
154 *6:179 0.00012475
155 *6:180 0.00073743
156 *6:181 0.00045127
157 *6:182 0.00043219
158 *6:183 0.00102596
159 *6:184 4.4e-06
160 *6:185 0.0006596
161 *6:186 0.00020172
162 *6:187 8.339e-05
163 *6:188 0.00039145
164 *6:189 0.00046359
165 *6:190 1.568e-05
166 *6:191 1.732e-05
167 *6:32 *38:49 6.3e-07
168 *6:35 *38:50 4.721e-05
169 *6:35 *38:51 5.582e-05
170 *6:35 *38:52 0.00011651
171 *6:39 *38:35 3.8e-07
172 *6:39 *38:36 4.49e-06
173 *6:39 *38:53 2.734e-05
174 *6:39 *38:54 3.32e-06
175 *6:39 *38:37 1.1e-06
176 *6:39 *38:55 3.2e-06
177 *6:40 *38:49 2.3e-06
178 *6:46 *38:56 1.886e-05
179 *6:48 *38:57 6.74e-06
180 *6:48 *38:58 9.56e-06
181 *6:49 *38:59 4.1e-07
182 *6:49 *38:60 3.01e-06
183 *6:49 *38:61 9.4e-07
184 *6:49 *38:49 9.7e-07
185 *6:49 *38:62 2.6e-07
186 *6:52 *38:44 3.674e-05
187 *6:52 *38:63 1.712e-05
188 *6:52 *38:64 2.96e-06
189 *6:52 *38:65 8.77e-06
190 *6:53 *38:66 5.6e-05
191 *6:54 *38:67 0.00012166
192 *6:54 *38:38 1.57e-05
193 *6:54 *38:43 2.19e-05
194 *6:54 *38:68 6.688e-05
195 *6:55 *38:69 3.404e-05
196 *6:55 *38:50 0.00012392
197 *6:55 *38:52 5.22e-05
198 *6:56 *38:51 0.0001107
199 *6:56 *38:52 6.564e-05
200 *6:57 *38:70 4.577e-05
201 *6:57 *38:51 7.2e-07
202 *6:57 *38:71 4.218e-05
203 *6:57 *38:72 2.4e-07
204 *6:57 *38:73 5.3e-06
205 *6:57 *38:74 3.313e-05
206 *6:57 *38:75 6.253e-05
207 *6:57 *38:76 1.466e-05
208 *6:57 *38:77 2.294e-05
209 *6:64 *38:78 1.488e-05
210 *6:69 *38:69 1.797e-05
211 *6:69 *38:67 1.445e-05
212 *6:70 *38:51 0.00011494
213 *6:70 *38:77 8.351e-05
214 *6:71 *38:79 5.1e-07
215 *6:73 *38:80 1.86e-06
216 *6:73 *38:81 4.6e-06
217 *6:75 *38:82 7.129e-05
218 *6:75 *38:83 6.1e-07
219 *6:75 *38:66 2.218e-05
220 *6:75 *38:84 3.942e-05
221 *6:81 *38:85 2.8e-06
222 *6:81 *38:78 1.972e-05
223 *6:84 *38:53 5.35e-06
224 *6:86 *38:63 9.4e-07
225 *6:86 *38:64 8.31e-06
226 *6:88 *38:67 1.754e-05
227 *6:90 *38:86 5.469e-05
228 *6:95 *38:78 0.00011848
229 *6:99 *38:82 2.931e-05
230 *6:100 *38:69 0.00011151
231 *6:100 *38:87 7.341e-05
232 *6:100 *38:67 8.149e-05
233 *6:100 *38:50 2.477e-05
234 *6:102 *38:88 8.327e-05
235 *6:109 *38:80 2.537e-05
236 *6:109 *38:86 0.00010373
237 *6:112 *38:89 0.00022979
238 *6:112 *38:67 2.645e-05
239 *6:112 *38:43 1.796e-05
240 *6:112 *38:68 0.00013369
241 *6:116 *38:90 9.92e-06
242 *6:120 *38:86 3.49e-06
243 *6:123 *38:57 2.623e-05
244 *6:123 *38:91 2.69e-06
245 *6:124 *38:82 3.64e-06
246 *6:124 *38:90 0.00012982
247 *6:124 *38:41 2.115e-05
248 *6:124 *38:84 4.555e-05
249 *6:127 *38:92 3.6e-06
250 *6:127 *38:91 3.66e-06
251 *6:128 *38:79 4.79e-06
252 *6:134 *38:49 2.317e-05
253 *6:134 *38:62 1.848e-05
254 *6:136 *38:93 2.292e-05
255 *6:136 *38:94 1.416e-05
256 *6:138 *38:49 1.206e-05
257 *6:138 *38:62 2.5e-07
258 *6:138 *38:65 2.173e-05
259 *6:139 *38:88 9.2e-07
260 *6:143 *38:95 4.19e-06
261 *6:144 *38:96 3.25e-06
262 *6:145 *38:97 4.6e-05
263 *6:145 *38:98 6.09e-06
264 *6:145 *38:99 3.5e-06
265 *6:145 *38:100 1.22e-06
266 *6:145 *38:86 2.7e-06
267 *6:145 *38:101 1.101e-05
268 *6:145 *38:102 3.893e-05
269 *6:145 *38:103 3.04e-06
270 *6:145 *38:104 1.75e-06
271 *6:148 *38:71 6.11e-06
272 *6:148 *38:74 3.635e-05
273 *6:148 *38:76 2.222e-05
274 *6:151 *38:76 7.74e-06
275 *6:151 *38:79 6.27e-06
276 *6:151 *38:105 7.249e-05
277 *6:151 *38:95 7.9e-05
278 *6:152 *38:96 2.14e-06
279 *6:153 *38:106 2.2e-06
280 *6:153 *38:107 6.37e-06
281 *6:153 *38:108 6.73e-06
282 *6:153 *38:58 3.556e-05
283 *6:154 *38:76 1.85e-06
284 *6:154 *38:79 5.863e-05
285 *6:160 *38:109 2.54e-06
286 *6:160 *38:79 6.115e-05
287 *6:160 *38:95 5.81e-06
288 *6:161 *38:57 1.805e-05
289 *6:161 *38:92 7.28e-06
290 *6:163 *38:95 6.558e-05
291 *6:164 *38:110 4.373e-05
292 *6:164 *38:88 7.6e-07
293 *6:166 *38:81 6.67e-06
294 *6:169 *38:110 1.899e-05
295 *6:174 *38:96 4.84e-06
296 *6:174 *38:110 3.84e-06
297 *6:175 *38:111 6.44e-06
298 *6:176 *38:86 2.879e-05
299 *6:177 *38:59 2.79e-06
300 *6:177 *38:112 8.61e-06
301 *6:177 *38:54 1.382e-05
302 *6:177 *38:37 2.396e-05
303 *6:177 *38:55 7.91e-06
304 *6:179 *38:96 4.98e-06
305 *6:179 *38:110 2.53e-06
306 *6:180 *38:113 1.555e-05
307 *6:181 *38:114 1.45e-06
308 *6:181 *38:115 1.906e-05
309 *6:181 *38:86 8.942e-05
310 *6:181 *38:101 7.73e-06
311 *6:182 *38:59 4.3e-07
312 *6:182 *38:55 1.573e-05
313 *6:183 *38:96 1.977e-05
314 *6:183 *38:110 5.72e-06
315 *6:183 *38:88 0.00010711
316 *6:183 *38:116 6.721e-05
317 *6:183 *38:117 1.362e-05
318 *6:185 *38:102 2.943e-05
319 *6:185 *38:103 1.345e-05
320 *6:185 *38:104 2.97e-06
321 *6:185 *38:107 1.026e-05
322 *6:185 *38:108 3.77e-06
323 *6:186 *38:56 3.86e-06
324 *6:186 *38:118 4.436e-05
325 *6:186 *38:88 1.959e-05
326 *6:186 *38:116 4.341e-05
327 *6:188 *38:57 1.858e-05
328 *6:188 *38:58 4.066e-05
329 *6:190 *38:118 2.92999133e-06
330 *6:45 *31:9 0.00134187
331 *6:47 *103:4 0.00073826
332 *6:47 *142:3 0.00066253

*RES
1 *6:164 *6:169 1.45481
2 *6:169 *6:174 0.623388
3 *6:139 *6:174 6.98345
4 *6:139 *6:89 7.39917
5 *645:B1 *6:89 2.02399
6 *6:139 *6:144 1.02618
7 *6:144 *6:152 0.623388
8 *6:152 *6:102 7.20423
9 *6:102 *633:B1 2.02399
10 *6:174 *6:179 0.610464
11 *6:179 *6:183 0.415712
12 *6:183 *6:190 4.77997
13 *6:186 *6:190 0.441559
14 *6:186 *6:155 7.59392
15 *6:155 *6:46 0.497203
16 *6:82 *6:46 1.37314
17 *6:107 *6:82 7.59392
18 *6:107 *6:118 0.415712
19 *6:118 *6:77 0.105005
20 *6:168 *6:77 4.05139
21 *6:162 *6:168 0.233703
22 *6:162 *6:178 4.33841
23 *6:173 *6:178 0.233703
24 *6:173 *6:150 7.59392
25 *6:147 *6:150 0.636491
26 *6:96 *6:147 0.415712
27 *6:83 *6:96 2.49391
28 *6:83 *6:142 0.389685
29 *6:137 *6:142 1.68851
30 *6:119 *6:137 0.207856
31 *6:108 *6:119 1.87034
32 *6:108 *6:132 0.181829
33 *6:126 *6:132 0.636491
34 *6:189 *6:126 8.23041
35 *6:189 *6:159 8.64612
36 *418:Z *6:159 6.98345
37 *6:82 *6:34 7.19131
38 *6:34 *6:50 0.871092
39 *627:B1 *6:50 2.41798
40 *6:164 *6:129 7.60702
41 *6:129 *6:36 7.39917
42 *6:36 *6:58 2.19577
43 *6:101 *6:58 1.3464
44 *642:B1 *6:101 0.505998
45 *6:143 *6:101 8.02255
46 *6:163 *6:143 7.61995
47 *6:160 *6:163 0.207856
48 *6:151 *6:160 5.58536
49 *6:151 *6:154 0.233703
50 *6:148 *6:154 0.610464
51 *6:148 *6:57 3.28369
52 *6:70 *6:57 6.89981
53 *6:70 *6:44 8.10423
54 *6:44 *6:33 7.10964
55 *6:33 *605:A2 0.253089
56 *6:70 *6:56 4.34792
57 *6:35 *6:56 5.62378
58 *6:35 *6:55 5.62378
59 *6:100 *6:55 6.01795
60 *6:69 *6:100 3.10438
61 *6:69 *6:88 0.233703
62 *6:88 *6:54 2.09938
63 *6:112 *6:54 4.53801
64 *6:87 *6:112 6.98345
65 *6:87 *6:42 1.32863
66 *6:62 *6:42 1.80178
67 *6:62 *6:79 0.389685
68 *6:79 *6:94 0.22078
69 *637:B1 *6:94 6.98345
70 *6:112 *6:68 11.763422
71 *6:68 *6:53 9.33287
72 *657:B1 *6:53 0.433661
73 *657:B1 *6:99 6.98345
74 *6:99 *6:75 1.32863
75 *6:124 *6:75 1.80178
76 *6:116 *6:124 0.207856
77 *6:106 *6:116 1.02618
78 *644:B1 *6:106 6.98345
79 *6:61 *644:B1 10.1201
80 *636:B1 *6:61 0.759087
81 *6:61 *6:41 9.81141
82 *6:86 *6:41 0.0816705
83 *656:B1 *6:86 6.98345
84 *6:86 *6:52 9.35423
85 *6:138 *6:52 5.11096
86 *6:122 *6:138 6.98345
87 *6:85 *6:122 6.98345
88 *6:85 *635:B1 3.54199
89 *6:134 *6:138 2.71469
90 *6:134 *6:40 0.0687468
91 *6:32 *6:40 0.139109
92 *6:32 *6:49 3.42208
93 *6:182 *6:49 1.96835
94 *6:158 *6:182 6.98345
95 *6:158 *6:74 0.126185
96 *6:121 *6:74 0.0816705
97 *631:B1 *6:121 6.98345
98 *6:158 *6:105 9.68522
99 *6:93 *6:105 0.759087
100 *6:146 *6:93 8.64612
101 *629:B1 *6:146 6.98345
102 *6:105 *598:B1 0.505998
103 *6:177 *6:182 5.1955
104 *6:141 *6:177 6.98345
105 *6:136 *6:141 1.45481
106 *632:B1 *6:136 6.98345
107 *6:141 *6:39 0.126185
108 *6:84 *6:39 4.433
109 *6:84 *6:110 0.415712
110 *6:98 *6:110 0.22078
111 *634:B1 *6:98 6.98345
112 *6:172 *6:177 0.610464
113 *6:172 *6:103 0.139109
114 *6:133 *6:103 0.0945942
115 *6:127 *6:133 1.87034
116 *6:127 *6:91 0.0687468
117 *6:167 *6:91 0.139109
118 *6:161 *6:167 0.81832
119 *6:161 *6:48 0.758548
120 *6:188 *6:48 1.73536
121 *6:185 *6:188 2.90944
122 *6:145 *6:185 6.98345
123 *6:145 *6:92 11.3477
124 *615:B1 *6:92 0.505998
125 *6:181 *6:185 1.87034
126 *6:176 *6:181 0.610464
127 *6:176 *6:90 0.139109
128 *6:120 *6:90 0.0945942
129 *6:109 *6:120 3.32516
130 *6:109 *6:73 0.0687468
131 *6:166 *6:73 0.139109
132 *6:166 *6:76 0.770754
133 *6:191 *6:76 0.463099
134 *6:156 *6:191 6.98345
135 *6:187 *6:156 11.3477
136 *6:180 *6:187 2.27313
137 *6:180 *6:184 0.233703
138 *6:175 *6:184 3.1173
139 *6:170 *6:175 0.207856
140 *6:165 *6:170 0.610464
141 *6:149 *6:165 6.98345
142 *6:149 *6:78 8.23041
143 *6:78 *653:B1 0.759087
144 *6:165 *6:130 9.47737
145 *6:130 *6:59 8.43827
146 *650:A2 *6:59 1.26508
147 *6:130 *6:135 0.636491
148 *6:104 *6:135 0.181829
149 *6:104 *6:114 2.90944
150 *6:114 *6:140 0.207856
151 *6:140 *6:37 0.970353
152 *6:65 *6:37 7.06513
153 *651:B1 *6:65 0.505998
154 *6:65 *652:B1 3.03599
155 *6:187 *6:47 0.463099
156 *6:171 *6:47 1.6151
157 *6:131 *6:171 6.98345
158 *6:131 *6:60 8.23041
159 *613:B1 *6:60 0.253089
160 *6:156 *6:72 0.126185
161 *6:97 *6:72 7.06513
162 *6:97 *6:51 0.563796
163 *610:B1 *6:51 0.195112
164 *6:181 *6:38 7.10964
165 *6:66 *6:38 8.31208
166 *6:66 *619:B1 0.505998
167 *6:188 *6:157 7.61995
168 *6:153 *6:157 1.45481
169 *6:153 *6:115 7.60702
170 *654:B1 *6:115 0.253089
171 *6:161 *6:123 8.43827
172 *655:B1 *6:123 6.98345
173 *6:134 *6:111 7.38624
174 *6:67 *6:111 6.98345
175 *608:B1 *6:67 0.505998
176 *6:100 *6:43 8.10423
177 *6:125 *6:43 1.581
178 *599:B1 *6:125 6.98345
179 *6:80 *599:B1 0.759087
180 *6:80 *6:117 6.98345
181 *6:117 *6:63 8.23041
182 *640:B1 *6:63 4.30107
183 *6:148 *6:113 7.20423
184 *6:113 *6:128 0.181829
185 *6:128 *6:71 7.41209
186 *641:B1 *6:71 0.253089
187 *6:113 *6:45 0.899991
188 *6:95 *6:45 5.54246
189 *6:81 *6:95 0.207856
190 *6:64 *6:81 1.85742
191 *607:B1 *6:64 6.98345
*END

*D_NET *7 0.0949497

*CONN
*I *419:Z O *C 809.48 134.96 *L 0 *D BUFFD4BWP7T
*I *625:B1 I *C 804.44 163.52 *L 0.00431 *D INR2D1BWP7T
*I *624:B1 I *C 803.88 143.36 *L 0.00431 *D INR2D1BWP7T
*I *621:B1 I *C 782.04 163.52 *L 0.00431 *D INR2D1BWP7T
*I *628:B1 I *C 740.04 143.36 *L 0.00431 *D INR2D1BWP7T
*I *626:B1 I *C 739.48 147.84 *L 0.00431 *D INR2D1BWP7T
*I *648:B1 I *C 721 171.36 *L 0.00431 *D INR2D1BWP7T
*I *606:B1 I *C 614.04 132.16 *L 0.00431 *D INR2D1BWP7T
*I *658:B1 I *C 356.44 151.2 *L 0.00431 *D INR2D1BWP7T
*I *596:B1 I *C 384.44 151.2 *L 0.00431 *D INR2D1BWP7T
*I *597:B1 I *C 413 151.2 *L 0.00431 *D INR2D1BWP7T
*I *600:B1 I *C 418.04 132.16 *L 0.00431 *D INR2D1BWP7T
*I *602:B1 I *C 571.48 132.16 *L 0.00431 *D INR2D1BWP7T
*I *601:B1 I *C 571.48 140 *L 0.00431 *D INR2D1BWP7T
*I *595:B1 I *C 584.36 151.2 *L 0.00431 *D INR2D1BWP7T
*I *604:B1 I *C 600.04 159.04 *L 0.00431 *D INR2D1BWP7T
*I *603:B1 I *C 606.2 159.04 *L 0.00431 *D INR2D1BWP7T
*I *647:B1 I *C 633.64 155.68 *L 0.00431 *D INR2D1BWP7T
*I *646:B1 I *C 636.44 155.68 *L 0.00431 *D INR2D1BWP7T
*I *614:B1 I *C 664.44 166.88 *L 0.00431 *D INR2D1BWP7T
*I *612:B1 I *C 689.64 174.72 *L 0.00431 *D INR2D1BWP7T
*I *622:B1 I *C 670.6 155.68 *L 0.00431 *D INR2D1BWP7T
*I *618:B1 I *C 659.4 135.52 *L 0.00431 *D INR2D1BWP7T
*I *643:B1 I *C 672.28 135.52 *L 0.00431 *D INR2D1BWP7T
*I *649:B1 I *C 696.92 132.16 *L 0.00431 *D INR2D1BWP7T
*I *630:B1 I *C 725.48 132.16 *L 0.00431 *D INR2D1BWP7T
*I *611:B1 I *C 716.52 143.36 *L 0.00431 *D INR2D1BWP7T
*I *639:B1 I *C 716.52 155.68 *L 0.00431 *D INR2D1BWP7T
*I *609:B1 I *C 738.92 166.88 *L 0.00431 *D INR2D1BWP7T
*I *616:B1 I *C 750.12 159.04 *L 0.00431 *D INR2D1BWP7T
*I *617:B1 I *C 766.92 155.68 *L 0.00431 *D INR2D1BWP7T
*I *620:B1 I *C 783.72 147.84 *L 0.00431 *D INR2D1BWP7T
*I *623:B1 I *C 784.84 135.52 *L 0.00431 *D INR2D1BWP7T

*CAP
1 *621:B1 7.76478e-06
2 *648:B1 0.000609762
3 *597:B1 0.000303053
4 *604:B1 0.000493678
5 *614:B1 0.000174805
6 *618:B1 0.000611703
7 *649:B1 2.13208e-05
8 *639:B1 5.01152e-05
9 *616:B1 8.18537e-06
10 *7:33 0.00160039
11 *7:34 0.00169402
12 *7:36 0.0012191
13 *7:37 0.00051419
14 *7:38 2.23237e-06
15 *7:40 7.67095e-05
16 *7:41 0.000323112
17 *7:42 0.000290079
18 *7:43 0.001054
19 *7:44 0.000121454
20 *7:45 4.55534e-05
21 *7:46 2.20002e-06
22 *7:47 0.000300691
23 *7:48 0.000310785
24 *7:49 0.000167428
25 *7:50 0.000140122
26 *7:51 0.000553888
27 *7:52 0.000791102
28 *7:53 0.000434634
29 *7:54 0.00107177
30 *7:55 0.000836849
31 *7:56 0.00045479
32 *7:57 6.61624e-05
33 *7:58 0.000754381
34 *7:59 0.000367889
35 *7:61 0.000386815
36 *7:62 0.000431075
37 *7:63 0.00196954
38 *7:64 0.000500925
39 *7:65 0.00063613
40 *7:66 1.35884e-06
41 *7:67 0.000326121
42 *7:68 0.001118
43 *7:69 0.000871014
44 *7:70 0.000592097
45 *7:71 0.000353265
46 *7:72 9.11714e-05
47 *7:73 0.00139934
48 *7:74 0.00201007
49 *7:75 0.00183229
50 *7:76 0.000174125
51 *7:77 8.80655e-05
52 *7:78 0.000188005
53 *7:79 0.00020994
54 *7:80 3.70121e-05
55 *7:81 0.000116116
56 *7:82 0.000140931
57 *7:83 0.00148188
58 *7:84 0.000117216
59 *7:85 0.00063105
60 *7:86 0.000146107
61 *7:87 8.02684e-05
62 *7:88 0.00136667
63 *7:89 0.00012071
64 *7:90 9.89362e-05
65 *7:91 0.000246855
66 *7:92 0.000134913
67 *7:93 0.000720798
68 *7:94 0.000786475
69 *7:95 0.000118283
70 *7:96 0.000101622
71 *7:97 0.000166522
72 *7:98 3.31944e-05
73 *7:99 0.000165907
74 *7:100 3.20944e-05
75 *7:101 0.000703877
76 *7:103 0.000766707
77 *7:104 0.000241226
78 *7:105 0.00139773
79 *7:106 0.000135107
80 *7:107 0.000279467
81 *7:108 0.000382351
82 *7:109 0.000292635
83 *7:110 0.000875414
84 *7:111 0.000257823
85 *7:112 0.000233202
86 *7:113 0.000647583
87 *7:114 0.00056272
88 *7:115 0.000464916
89 *7:116 0.00212027
90 *7:117 6.08241e-06
91 *7:118 0.00101515
92 *7:119 8.48626e-05
93 *7:120 0.000476725
94 *7:121 0.00010958
95 *7:122 0.00013006
96 *7:124 9.19803e-05
97 *7:125 5.10858e-05
98 *7:126 6.56771e-05
99 *7:127 8.36979e-05
100 *7:128 0.000405483
101 *7:130 0.00108623
102 *7:131 0.000741666
103 *7:132 0.000139054
104 *7:133 0.000381542
105 *7:134 0.000290014
106 *7:135 0.000414122
107 *7:136 7.42183e-05
108 *7:138 0.000469769
109 *7:139 0.00141652
110 *7:140 0.000466437
111 *7:141 7.1533e-05
112 *7:142 0.000230129
113 *7:143 0.00053522
114 *7:144 2.31973e-05
115 *7:145 5.34476e-05
116 *7:147 9.20773e-05
117 *7:148 0.000300529
118 *7:149 0.000436963
119 *7:150 3.37444e-05
120 *7:151 0.000135722
121 *7:152 0.000801681
122 *7:153 5.74594e-05
123 *7:154 0.000130901
124 *7:155 0.000728919
125 *7:156 0.000110486
126 *7:157 0.000124722
127 *7:158 7.89096e-05
128 *7:159 0.000973768
129 *7:160 0.00100227
130 *7:162 0.000614097
131 *7:163 0.000839211
132 *7:164 4.68151e-05
133 *7:165 0.000261382
134 *7:166 5.43535e-05
135 *7:167 7.77772e-05
136 *7:168 7.77772e-05
137 *7:170 0.000142613
138 *7:171 0.000608759
139 *7:172 0.000666768
140 *7:173 0.00106115
141 *7:174 5.62946e-06
142 *7:175 0.000115986
143 *7:176 0.00036158
144 *7:177 0.000353847
145 *7:178 0.000854158
146 *7:179 0.00143137
147 *7:180 0.000811743
148 *7:181 3.09621e-05
149 *7:182 0.000217058
150 *7:183 7.12419e-05
151 *7:184 0.000302212
152 *7:185 4.0668e-05
153 *7:186 0.000386589
154 *7:188 0.000115339
155 *7:189 0.000596076
156 *7:191 0.000132907
157 *7:192 6.26682e-05
158 *7:193 0.000162187
159 *7:195 0.000180628
160 *7:196 0.000314894
161 *7:197 5.60358e-05
162 *7:198 5.72652e-05
163 *7:199 0.000601059
164 *7:201 0.000198811
165 *7:202 0.000462716
166 *7:203 0.000351615
167 *7:204 0.000129025
168 *7:205 2.26473e-06
169 *7:206 0.000630274
170 *7:207 0.000759622
171 *7:208 6.5483e-05
172 *7:209 0.000689545
173 *7:210 0.000502769
174 *7:211 0.000522634
175 *7:212 5.56476e-06
176 *7:213 0.000359703
177 *7:214 0.000415545
178 *7:215 1.7406e-05
179 *7:216 3.62356e-05
180 *7:217 1.77619e-05
181 *7:218 9.32421e-05
182 *7:219 0.00077774
183 *7:220 0.000285194
184 *7:221 0.000242941
185 *7:222 3.74327e-05
186 *7:223 0.000121066
187 *7:224 0.000431398
188 *7:225 5.14417e-06
189 *7:33 *300:2 0.00025677
190 *7:47 *93:4 0.00055387
191 *7:36 *184:3 0.00274434
192 *7:35 *197:3 0.00045503
193 *7:62 *29:9 0.00078451
194 *7:42 *94:4 0.00062727
195 *7:35 *147:3 0.00169792
196 *7:62 *111:4 0.00118592
197 *7:33 *215:2 0.00069319
198 *7:38 *203:3 0.0007028
199 *7:67 *281:3 0.00137025
200 *7:49 *113:9 0.00078218
201 *7:42 *23:75 4.649e-05
202 *7:42 *23:76 1.69e-06
203 *7:46 *23:75 2.47e-06
204 *7:47 *23:63 5.227e-05
205 *7:48 *23:77 1.98e-06
206 *7:48 *23:78 4.192e-05
207 *7:48 *23:79 3.71e-06
208 *7:48 *23:80 1.63e-05
209 *7:48 *23:81 5.61e-06
210 *7:65 *23:82 7.352e-05
211 *7:65 *23:72 3.743e-05
212 *7:67 *23:80 8.088e-05
213 *7:69 *23:83 5.4e-07
214 *7:69 *23:84 3.53e-06
215 *7:69 *23:85 1.291e-05
216 *7:69 *23:86 3.63e-06
217 *7:69 *23:87 4.703e-05
218 *7:69 *23:88 6.02e-06
219 *7:76 *23:89 3.02e-06
220 *7:85 *23:63 2.591e-05
221 *7:85 *23:65 2.507e-05
222 *7:90 *23:75 9.29e-06
223 *7:101 *23:90 2.8e-06
224 *7:101 *23:91 4.225e-05
225 *7:111 *23:72 4.528e-05
226 *7:113 *23:67 2.966e-05
227 *7:113 *23:92 2.975e-05
228 *7:113 *23:93 2.69e-06
229 *7:113 *23:94 3.333e-05
230 *7:113 *23:80 2.168e-05
231 *7:113 *23:95 1.667e-05
232 *7:115 *23:88 7.336e-05
233 *7:115 *23:96 1.406e-05
234 *7:116 *23:64 3.66e-06
235 *7:116 *23:67 0.00015804
236 *7:116 *23:92 5.385e-05
237 *7:116 *23:93 9.19e-06
238 *7:118 *23:97 0.00017617
239 *7:125 *23:94 4.53e-05
240 *7:129 *23:91 1.968e-05
241 *7:131 *23:97 0.00046603
242 *7:131 *23:98 0.00013648
243 *7:131 *23:99 2.987e-05
244 *7:131 *23:100 4.76e-05
245 *7:131 *23:101 4.248e-05
246 *7:131 *23:102 1.458e-05
247 *7:139 *23:64 9.282e-05
248 *7:139 *23:65 6.827e-05
249 *7:140 *23:103 2.89e-06
250 *7:140 *23:94 2.012e-05
251 *7:140 *23:104 2.28e-05
252 *7:140 *23:105 6.41e-06
253 *7:140 *23:106 1.061e-05
254 *7:144 *23:100 8.235e-05
255 *7:144 *23:101 1.1e-06
256 *7:151 *23:65 4.898e-05
257 *7:155 *23:107 6.54e-06
258 *7:155 *23:88 9.174e-05
259 *7:157 *23:75 1.908e-05
260 *7:157 *23:101 0.00012998
261 *7:157 *23:76 3.28e-06
262 *7:160 *23:89 1.732e-05
263 *7:164 *23:65 9.127e-05
264 *7:166 *23:108 9.19e-06
265 *7:173 *23:72 0.00027272
266 *7:174 *23:65 2.59e-06
267 *7:34 *23:109 4.3e-07
268 *7:34 *23:110 0.00029622
269 *7:34 *23:108 1.217e-05
270 *7:180 *23:89 4.67e-06
271 *7:182 *23:111 3e-07
272 *7:182 *23:112 2.806e-05
273 *7:182 *23:113 2.291e-05
274 *7:184 *23:72 0.0001868
275 *7:190 *23:89 4.74e-06
276 *7:192 *23:70 4.71e-06
277 *7:192 *23:72 0.00012834
278 *7:197 *23:72 4.068e-05
279 *7:199 *23:114 5.383e-05
280 *7:200 *23:87 2.173e-05
281 *7:203 *23:89 6.17e-06
282 *7:204 *23:70 6.432e-05
283 *7:204 *23:72 1.22e-05
284 *7:210 *23:63 1.972e-05
285 *7:210 *23:70 2.829e-05
286 *7:210 *23:72 3.152e-05
287 *7:215 *23:72 2.152e-05
288 *7:219 *23:83 1.21e-06
289 *7:219 *23:85 4.689e-05
290 *7:219 *23:115 1.533e-05
291 *7:219 *23:116 1.48e-06
292 *618:B1 *23:117 4.14898197e-05
293 *7:39 *140:2 0.00040046
294 *7:84 *284:5 0.00093007

*RES
1 *7:122 *7:150 0.389814
2 *7:150 *7:163 0.207937
3 *7:163 *7:183 3.32509
4 *7:172 *7:183 0.233726
5 *7:172 *7:95 8.63319
6 *597:B1 *7:95 6.98354
7 *597:B1 *7:80 1.518
8 *7:80 *7:45 7.06525
9 *7:130 *7:45 3.87995
10 *7:87 *7:130 0.207937
11 *7:70 *7:87 1.66268
12 *7:70 *7:117 0.181877
13 *7:103 *7:117 2.10407
14 *7:103 *7:156 0.59748
15 *7:143 *7:156 0.194907
16 *7:143 *7:53 9.31102
17 *7:35 *7:53 2.85493
18 *7:35 *7:71 0.207937
19 *7:71 *7:104 1.66268
20 *7:88 *7:104 0.233726
21 *7:88 *7:54 6.70421
22 *7:36 *7:54 5.6238
23 *7:36 *7:55 5.6238
24 *7:72 *7:55 3.2461
25 *7:37 *7:72 0.103969
26 *7:37 *7:89 2.4681
27 *7:89 *7:105 0.103969
28 *7:105 *7:56 5.53368
29 *7:38 *7:56 3.61067
30 *7:38 *7:73 0.207937
31 *7:73 *7:57 7.63721
32 *7:188 *7:57 0.675931
33 *7:178 *7:188 0.233726
34 *7:178 *7:195 3.92284
35 *7:195 *7:201 0.207937
36 *7:201 *7:212 2.28595
37 *7:206 *7:212 0.233726
38 *7:206 *7:106 9.67233
39 *7:106 *7:118 0.415603
40 *602:B1 *7:118 6.98354
41 *7:118 *7:131 2.90949
42 *601:B1 *7:131 6.98354
43 *7:131 *7:144 3.9356
44 *7:144 *7:157 0.207937
45 *7:157 *7:90 7.41217
46 *7:90 *7:46 0.153645
47 *7:42 *7:46 0.0863238
48 *7:42 *7:65 1.73516
49 *595:B1 *7:65 3.84385
50 *595:B1 *7:111 6.98354
51 *7:111 *7:123 0.62354
52 *7:184 *7:123 7.61984
53 *7:173 *7:184 0.103969
54 *7:173 *7:192 3.92284
55 *7:192 *7:197 0.103969
56 *7:197 *7:204 0.62354
57 *7:204 *7:210 0.62354
58 *7:210 *7:215 2.50692
59 *7:138 *7:215 6.98354
60 *7:138 *7:47 1.32852
61 *7:74 *7:47 14.1756
62 *7:39 *7:74 0.266029
63 *7:39 *7:58 0.475052
64 *606:B1 *7:58 3.56018
65 *7:138 *7:96 8.64595
66 *604:B1 *7:96 2.27699
67 *7:96 *7:66 0.487811
68 *603:B1 *7:66 0.0135729
69 *7:215 *7:85 0.400673
70 *7:151 *7:85 2.91139
71 *7:139 *7:151 0.233726
72 *7:139 *7:164 7.66354
73 *7:164 *7:174 0.207937
74 *7:174 *7:116 0.636298
75 *7:86 *7:116 6.98354
76 *7:124 *7:86 0.217167
77 *7:124 *7:102 0.211466
78 *7:112 *7:102 1.03914
79 *7:97 *7:112 0.402573
80 *647:B1 *7:97 6.98354
81 *646:B1 *7:86 6.98354
82 *7:116 *7:113 17.7902946
83 *7:81 *7:113 6.98354
84 *7:81 *7:67 0.549432
85 *622:B1 *7:67 1.72756
86 *7:113 *7:125 2.6888
87 *7:125 *7:140 0.207937
88 *7:140 *7:98 8.86692
89 *614:B1 *7:98 0.758998
90 *7:113 *7:48 1.32852
91 *7:75 *7:48 12.7208
92 *618:B1 *7:75 2.78299
93 *7:75 *7:59 0.549432
94 *7:40 *7:59 1.22156
95 *7:107 *7:40 6.99358
96 *7:107 *7:145 0.805417
97 *7:132 *7:145 0.298876
98 *7:189 *7:132 8.84086
99 *7:179 *7:189 0.441663
100 *7:179 *7:84 7.52944
101 *7:146 *7:84 7.96187
102 *7:133 *7:146 0.831205
103 *7:119 *7:133 0.207937
104 *7:202 *7:119 9.25646
105 *7:202 *7:207 0.207937
106 *7:207 *7:217 2.90949
107 *7:213 *7:217 0.233726
108 *7:213 *7:220 1.02611
109 *7:220 *7:222 1.45475
110 *7:222 *7:223 0.62354
111 *7:170 *7:223 6.98354
112 *7:170 *7:91 7.1912
113 *7:91 *630:B1 1.518
114 *7:223 *7:225 0.61051
115 *7:224 *7:225 0.441663
116 *7:224 *7:61 1.3201
117 *7:218 *7:61 2.18687
118 *7:218 *7:221 0.415603
119 *7:221 *7:134 7.61984
120 *7:134 *7:147 0.61051
121 *7:147 *7:180 0.207937
122 *7:180 *7:190 2.10407
123 *7:160 *7:190 0.181877
124 *7:160 *7:41 9.07458
125 *7:41 *7:76 1.518
126 *7:203 *7:76 8.23035
127 *7:92 *7:203 6.98354
128 *7:92 *626:B1 0.505998
129 *7:203 *7:208 0.402573
130 *7:208 *7:214 0.207937
131 *7:214 *7:50 1.17813
132 *7:127 *7:50 0.484282
133 *7:127 *7:199 0.207937
134 *7:199 *7:205 1.89641
135 *7:142 *7:205 0.181877
136 *7:142 *7:154 0.636298
137 *7:43 *7:154 6.98354
138 *7:43 *616:B1 5.05998
139 *616:B1 *7:219 6.98354
140 *7:219 *7:69 9.79639
141 *7:200 *7:69 3.42173
142 *7:128 *7:200 6.98354
143 *7:115 *7:128 1.66268
144 *617:B1 *7:115 6.98354
145 *7:128 *7:83 8.23035
146 *7:83 *621:B1 6.83098
147 *621:B1 *7:187 6.98354
148 *7:177 *7:187 0.636298
149 *7:168 *7:177 0.207937
150 *7:155 *7:168 2.28595
151 *7:155 *7:194 0.59748
152 *7:194 *7:51 1.34155
153 *7:108 *7:51 0.970464
154 *7:108 *7:161 0.181877
155 *7:148 *7:161 0.636298
156 *620:B1 *7:148 6.98354
157 *7:135 *7:148 0.207937
158 *7:120 *7:135 1.64965
159 *7:120 *7:181 0.103969
160 *7:171 *7:181 1.66268
161 *7:171 *7:196 0.103969
162 *7:196 *7:77 7.61984
163 *7:77 *623:B1 0.252999
164 *7:135 *7:62 8.57483
165 *7:182 *7:62 3.81209
166 *7:182 *7:191 1.45475
167 *7:191 *7:121 7.60708
168 *7:109 *7:121 1.03914
169 *624:B1 *7:109 6.98354
170 *7:93 *7:109 1.45475
171 *7:209 *7:93 9.06182
172 *7:209 *7:162 8.43828
173 *419:Z *7:162 6.98354
174 *7:121 *7:136 0.402573
175 *7:136 *7:149 0.207937
176 *7:149 *7:52 1.38607
177 *7:129 *7:52 2.38069
178 *7:101 *7:129 0.389814
179 *7:101 *7:44 8.86692
180 *7:44 *625:B1 0.505998
181 *7:154 *7:167 0.61051
182 *7:167 *7:211 0.207937
183 *7:211 *7:216 1.68847
184 *7:176 *7:216 0.181877
185 *7:176 *7:186 0.636298
186 *609:B1 *7:186 6.98354
187 *7:186 *7:100 8.23035
188 *7:100 *7:68 5.2082
189 *648:B1 *7:68 2.88777
190 *648:B1 *7:193 6.98354
191 *7:198 *7:193 8.23035
192 *7:198 *7:34 12.8155
193 *7:166 *7:34 0.207937
194 *7:153 *7:166 0.194907
195 *7:141 *7:153 0.220696
196 *7:126 *7:141 0.207937
197 *7:126 *7:49 0.899884
198 *7:159 *7:49 2.82778
199 *611:B1 *7:159 6.98354
200 *7:153 *7:99 7.24957
201 *639:B1 *7:99 0.239969
202 *7:198 *7:33 7.62852
203 *7:185 *7:33 0.0738367
204 *7:175 *7:185 0.415603
205 *7:152 *7:175 2.4681
206 *7:152 *7:165 0.441663
207 *7:165 *7:114 7.59405
208 *7:114 *7:82 8.64595
209 *7:82 *612:B1 0.505998
210 *7:76 *628:B1 0.758998
211 *7:133 *7:60 8.17443
212 *649:B1 *7:60 0.0741081
213 *7:145 *7:158 0.207937
214 *643:B1 *7:158 6.98354
215 *7:156 *7:169 0.220696
216 *600:B1 *7:169 6.98354
217 *7:122 *7:137 0.233726
218 *7:137 *7:64 1.63336
219 *7:110 *7:64 3.54932
220 *7:110 *7:63 7.69829
221 *7:94 *7:63 9.6764
222 *7:78 *7:94 0.207937
223 *658:B1 *7:78 6.98354
224 *7:110 *7:79 7.1912
225 *596:B1 *7:79 6.98354
*END

*D_NET *8 0.00095256

*CONN
*I *512:Z O *C 498.68 138.32 *L 0 *D DEL01BWP7T
*I *513:A2 I *C 495.04 139.72 *L 0.00281 *D OR2D0BWP7T

*CAP
1 *8:2 0.000124101
2 *8:3 0.000166329
3 *8:4 0.000185318
4 *8:5 0.00047681

*RES
1 *512:Z *8:4 6.98348
2 *8:4 *8:5 6.98348
3 *8:5 *8:3 8.23042774
4 *8:2 *8:3 6.98348
5 *8:2 *513:A2 0.126465
*END

*D_NET *9 0.00144155

*CONN
*I *464:Z O *C 507.08 164.64 *L 0 *D DEL0BWP7T
*I *502:I1 I *C 503.16 166.88 *L 0.00385 *D CKMUX2D1BWP7T

*CAP
1 *9:2 0.00051411
2 *9:4 0.000173751
3 *9:5 0.00075369

*RES
1 *9:4 *9:5 6.98355
2 *9:5 *9:2 8.43825054
3 *9:2 *9:3 1.24689
4 *502:I1 *9:3 6.98355
5 *464:Z *9:4 6.98355
*END

*D_NET *10 0.00148658

*CONN
*I *465:Z O *C 505.4 150.08 *L 0 *D DEL0BWP7T
*I *491:I1 I *C 501.48 155.68 *L 0.00385 *D CKMUX2D1BWP7T

*CAP
1 *10:2 0.00057048
2 *10:4 0.000359907
3 *10:5 0.000556186

*RES
1 *491:I1 *10:3 6.98355
2 *10:2 *10:3 0.831258
3 *10:5 *10:2 8.43825054
4 *10:5 *10:4 7.39918
5 *465:Z *10:4 6.98355
*END

*D_NET *11 0.00117029

*CONN
*I *466:Z O *C 507.08 173.6 *L 0 *D DEL0BWP7T
*I *499:I1 I *C 503.16 179.2 *L 0.00385 *D CKMUX2D1BWP7T

*CAP
1 *11:2 0.000193043
2 *11:4 0.00049482
3 *11:5 0.00048243

*RES
1 *11:2 *11:3 0.207815
2 *499:I1 *11:3 6.98355
3 *11:5 *11:2 8.43825054
4 *11:5 *11:4 8.02262
5 *466:Z *11:4 6.98355
*END

*D_NET *12 0.0112004

*CONN
*I *463:I I *C 492.235 186.76 *L 0.00545 *D DEL015BWP7T
*I *433:Z O *C 490.84 134.4 *L 0 *D CKBD0BWP7T
*I *445:I1 I *C 523.32 182.56 *L 0.00385 *D CKMUX2D1BWP7T

*CAP
1 *12:3 0.00111536
2 *12:4 0.000147404
3 *12:5 1.01367e-05
4 *12:6 0.000819069
5 *12:7 0.000591096
6 *12:8 2.67199e-05
7 *12:9 0.000489911
8 *12:10 0.000183258
9 *12:12 0.000961644
10 *12:14 0.00110251
11 *12:15 4.86334e-05
12 *12:16 0.000819684
13 *12:17 0.00149283
14 *12:18 0.000451346
15 *12:19 5.17086e-06
16 *12:20 0.000517086
17 *12:22 4.29387e-05
18 *12:23 0.00011262
19 *12:24 0.000330981
20 *12:3 *21:3 0.00041825
21 *12:3 *23:53 0.00111305
22 *12:3 *26:8 0.00040064

*RES
1 *12:9 *12:13 1.14299
2 *463:I *12:13 6.98344
3 *12:20 *12:9 9.25661
4 *12:17 *12:20 0.649413
5 *12:17 *12:5 0.0434161
6 *12:24 *12:5 0.164372
7 *12:24 *12:19 8.6331
8 *12:16 *12:19 2.92244
9 *12:8 *12:16 0.207788
10 *12:3 *12:8 4.15652
11 *12:3 *12:15 0.181891
12 *12:12 *12:15 3.5589
13 *12:12 *12:21 0.181891
14 *12:21 *12:4 0.510177
15 *12:14 *12:4 3.45135
16 *12:14 *12:18 6.98344
17 *12:18 *12:11 8.43826
18 *12:7 *12:11 2.07818
19 *433:Z *12:7 6.98344
20 *12:17 *12:22 5.58529
21 *12:22 *12:23 0.207788
22 *12:23 *12:6 0.545824
23 *12:10 *12:6 9.98356438
24 *445:I1 *12:10 6.98344
*END

*D_NET *13 0.00123992

*CONN
*I *467:Z O *C 562.52 134.4 *L 0 *D DEL0BWP7T
*I *509:I1 I *C 556.92 135.52 *L 0.00385 *D CKMUX2D1BWP7T

*CAP
1 *13:2 0.000231036
2 *13:3 0.000174534
3 *13:4 0.00083435

*RES
1 *13:3 *13:4 6.98351
2 *13:4 *13:2 9.06171989
3 *509:I1 *13:2 6.98351
4 *467:Z *13:3 6.98351
*END

*D_NET *14 0.00158754

*CONN
*I *468:Z O *C 565.32 150.08 *L 0 *D DEL0BWP7T
*I *510:I1 I *C 561.4 155.68 *L 0.00385 *D CKMUX2D1BWP7T

*CAP
1 *14:2 0.00036316
2 *14:4 0.000400125
3 *14:5 0.00082426

*RES
1 *510:I1 *14:3 6.98355
2 *14:2 *14:3 0.831258
3 *14:5 *14:2 8.43825054
4 *14:5 *14:4 7.39918
5 *468:Z *14:4 6.98355
*END

*D_NET *15 0.00103042

*CONN
*I *469:Z O *C 508.2 134.4 *L 0 *D DEL0BWP7T
*I *489:I1 I *C 504.28 140 *L 0.00385 *D CKMUX2D1BWP7T

*CAP
1 *15:2 9.01505e-06
2 *15:3 0.000243692
3 *15:4 2.98638e-05
4 *15:5 0.00074785

*RES
1 *15:5 *15:4 0.844271
2 *489:I1 *15:4 6.98348808
3 *15:5 *15:2 1.42886
4 *15:3 *15:2 0.428583
5 *469:Z *15:3 6.98348808
*END

*D_NET *16 0.00136704

*CONN
*I *470:Z O *C 552.44 148.96 *L 0 *D DEL0BWP7T
*I *481:I1 I *C 546.84 147.84 *L 0.00385 *D CKMUX2D1BWP7T

*CAP
1 *16:2 0.000190413
2 *16:3 0.000235546
3 *16:4 0.00094108

*RES
1 *16:3 *16:4 6.98351
2 *16:4 *16:2 9.06171989
3 *481:I1 *16:2 6.98351
4 *470:Z *16:3 6.98351
*END

*D_NET *17 0.00155024

*CONN
*I *471:Z O *C 536.2 142.24 *L 0 *D DEL0BWP7T
*I *483:I1 I *C 528.36 143.36 *L 0.00385 *D CKMUX2D1BWP7T

*CAP
1 *17:2 0.00019197
2 *17:3 0.000173893
3 *17:4 0.000374064
4 *17:5 0.00052582
5 *17:6 0.000266942
6 *17:7 1.75634e-05

*RES
1 *471:Z *17:3 6.98346
2 *17:6 *17:3 7.59400177
3 *17:6 *17:7 0.23372
4 *17:5 *17:7 1.66258
5 *17:4 *17:5 0.20788
6 *17:4 *17:2 7.59400177
7 *483:I1 *17:2 6.98346
*END

*D_NET *18 0.00162885

*CONN
*I *472:Z O *C 522.76 150.08 *L 0 *D DEL0BWP7T
*I *485:I1 I *C 517.16 151.2 *L 0.00385 *D CKMUX2D1BWP7T

*CAP
1 *18:2 0.000278598
2 *18:3 0.000120805
3 *18:4 7.19541e-06
4 *18:5 0.000275362
5 *18:6 0.00094689

*RES
1 *18:6 *18:5 7.39915
2 *472:Z *18:5 6.98351
3 *18:6 *18:4 9.06171989
4 *18:4 *18:2 0.705181
5 *18:3 *18:2 0.126241
6 *485:I1 *18:3 6.98351
*END

*D_NET *19 0.00111523

*CONN
*I *473:Z O *C 518.84 134.4 *L 0 *D DEL0BWP7T
*I *487:I1 I *C 514.92 140 *L 0.00385 *D CKMUX2D1BWP7T

*CAP
1 *19:2 0.000400982
2 *19:3 4.94482e-05
3 *19:4 0.00044483
4 *19:5 3.82146e-06
5 *19:6 0.000216153

*RES
1 *487:I1 *19:5 6.98348808
2 *19:6 *19:5 0.428583
3 *19:6 *19:2 0.104322
4 *19:3 *19:2 1.32454
5 *19:4 *19:3 0.844271
6 *473:Z *19:4 6.98348808
*END

*D_NET *20 0.00114012

*CONN
*I *474:Z O *C 560.28 141.12 *L 0 *D DEL0BWP7T
*I *479:I1 I *C 554.68 140 *L 0.00385 *D CKMUX2D1BWP7T

*CAP
1 *20:2 0.000288811
2 *20:4 0.00019327
3 *20:5 0.00065804

*RES
1 *474:Z *20:4 6.98351
2 *20:5 *20:4 7.19133
3 *20:5 *20:3 9.06171989
4 *20:2 *20:3 0.415642
5 *479:I1 *20:2 6.98351
*END

*D_NET *21 0.0099608

*CONN
*I *434:Z O *C 490.84 130.48 *L 0 *D DEL02BWP7T
*I *443:I1 I *C 517.16 171.36 *L 0.00385 *D CKMUX2D1BWP7T
*I *495:I1 I *C 490.84 174.72 *L 0.00385 *D CKMUX2D1BWP7T

*CAP
1 *21:3 0.000980891
2 *21:4 0.000988313
3 *21:5 8.39397e-05
4 *21:6 0.000211091
5 *21:7 5.71836e-05
6 *21:8 0.000215607
7 *21:9 0.000219226
8 *21:10 0.000224667
9 *21:13 0.00017752
10 *21:14 1.20706e-05
11 *21:15 0.000377702
12 *21:16 3.94078e-05
13 *21:18 7.54612e-05
14 *21:19 0.000344317
15 *21:20 0.000240964
16 *21:21 7.92383e-08
17 *21:22 0.000249918
18 *21:23 1.50553e-06
19 *21:24 0.000674899
20 *21:25 2.98728e-05
21 *21:26 0.00173096
22 *21:27 0.000211777
23 *21:5 *23:118 0.00047887
24 *21:5 *31:24 0.00061269
25 *21:6 *57:5 0.00063362
26 *21:3 *12:3 0.00041825
27 *21:15 *56:4 0.00047142
28 *21:4 *200:3 0.000198549967

*RES
1 *21:4 *21:12 0.103905
2 *21:9 *21:12 0.649377
3 *21:9 *21:17 0.181867
4 *21:15 *21:17 1.27281
5 *21:15 *21:21 0.181867
6 *21:19 *21:21 1.05203
7 *434:Z *21:19 6.9835
8 *21:4 *21:5 4.06182
9 *21:7 *21:5 0.899958
10 *21:7 *21:10 0.103905
11 *21:10 *21:13 0.623433
12 *21:13 *21:3 0.415622
13 *21:3 *21:18 3.32523
14 *21:18 *21:24 0.207811
15 *21:24 *21:25 2.5198
16 *21:20 *21:25 0.181867
17 *21:20 *21:22 0.636405
18 *21:27 *21:22 7.59396315
19 *21:26 *21:27 0.233755
20 *21:26 *21:6 8.41724396
21 *21:14 *21:6 0.0775759
22 *21:14 *21:16 0.207811
23 *21:16 *21:11 7.61990738
24 *21:8 *21:11 0.623433
25 *443:I1 *21:8 6.9835
26 *21:22 *21:23 0.623433
27 *495:I1 *21:23 6.9835
*END

*D_NET *22 0.0073408

*CONN
*I *435:Z O *C 500.92 130.48 *L 0 *D DEL02BWP7T
*I *457:I1 I *C 518.84 159.04 *L 0.00385 *D CKMUX2D1BWP7T
*I *493:I1 I *C 494.76 163.52 *L 0.00385 *D CKMUX2D1BWP7T

*CAP
1 *22:3 0.000612327
2 *22:4 0.000250177
3 *22:5 0.00190157
4 *22:6 0.000117515
5 *22:7 0.000131704
6 *22:8 0.000415569
7 *22:9 2.10657e-05
8 *22:10 4.72962e-05
9 *22:11 0.000307048
10 *22:12 0.00127758
11 *22:4 *23:60 0.00072786
12 *22:3 *26:10 0.00049122
13 *22:3 *53:5 0.0003626
14 *22:3 *348:17 0.00067719

*RES
1 *22:12 *22:4 5.31292
2 *22:7 *22:4 8.32094
3 *457:I1 *22:7 6.98355
4 *22:10 *22:12 0.194931
5 *22:10 *22:11 0.233679
6 *22:11 *22:8 8.84091
7 *22:8 *22:9 1.46765
8 *22:6 *22:9 0.194931
9 *493:I1 *22:6 6.98355
10 *22:12 *22:3 9.76683426
11 *22:5 *22:3 6.98429
12 *435:Z *22:5 6.98355
*END

*D_NET *23 0.101152

*CONN
*I *420:Z O *C 805 132.72 *L 0 *D BUFFD1P5BWP7T
*I *543:CN I *C 794.0875 131.8975 *L 0.00324 *D DFKCNQD1BWP7T
*I *544:CN I *C 802.4875 159.3025 *L 0.00324 *D DFKCNQD1BWP7T
*I *579:CN I *C 722.9525 167.1425 *L 0.00324 *D DFKCNQD1BWP7T
*I *583:CN I *C 722.4075 163.2575 *L 0.00324 *D DFKCNQD1BWP7T
*I *580:CN I *C 718.4725 159.3025 *L 0.00324 *D DFKCNQD1BWP7T
*I *584:CN I *C 723.5275 147.5775 *L 0.00324 *D DFKCNQD1BWP7T
*I *586:CN I *C 666.9525 163.2575 *L 0.00324 *D DFKCNQD1BWP7T
*I *585:CN I *C 687.6875 163.2575 *L 0.00324 *D DFKCNQD1BWP7T
*I *538:CN I *C 668.6325 147.5775 *L 0.00324 *D DFKCNQD1BWP7T
*I *578:CN I *C 611.5125 139.7375 *L 0.00324 *D DFKCNQD1BWP7T
*I *536:CN I *C 597.5275 155.4175 *L 0.00324 *D DFKCNQD1BWP7T
*I *576:CN I *C 571.2075 135.7825 *L 0.00324 *D DFKCNQD1BWP7T
*I *575:CN I *C 571.7675 143.6225 *L 0.00324 *D DFKCNQD1BWP7T
*I *557:CN I *C 494.4725 151.4625 *L 0.00324 *D DFKCNQD1BWP7T
*I *558:CN I *C 493.3675 135.7825 *L 0.00324 *D DFKCNQD1BWP7T
*I *535:CN I *C 579.0325 147.5775 *L 0.00324 *D DFKCNQD1BWP7T
*I *577:CN I *C 610.9525 151.4625 *L 0.00324 *D DFKCNQD1BWP7T
*I *559:CN I *C 638.3925 151.4625 *L 0.00324 *D DFKCNQD1BWP7T
*I *560:CN I *C 638.3925 135.7825 *L 0.00324 *D DFKCNQD1BWP7T
*I *537:CN I *C 659.6725 131.8975 *L 0.00324 *D DFKCNQD1BWP7T
*I *561:CN I *C 687.6725 139.7375 *L 0.00324 *D DFKCNQD1BWP7T
*I *562:CN I *C 697.1925 135.7825 *L 0.00324 *D DFKCNQD1BWP7T
*I *581:CN I *C 711.7675 135.7825 *L 0.00324 *D DFKCNQD1BWP7T
*I *582:CN I *C 724.0875 143.6225 *L 0.00324 *D DFKCNQD1BWP7T
*I *546:CN I *C 738.6475 135.7825 *L 0.00324 *D DFKCNQD1BWP7T
*I *545:CN I *C 747.6075 155.4175 *L 0.00324 *D DFKCNQD1BWP7T
*I *539:CN I *C 758.2325 151.4625 *L 0.00324 *D DFKCNQD1BWP7T
*I *540:CN I *C 783.9925 159.3025 *L 0.00324 *D DFKCNQD1BWP7T
*I *541:CN I *C 798.0075 147.5775 *L 0.00324 *D DFKCNQD1BWP7T
*I *542:CN I *C 796.8875 135.7825 *L 0.00324 *D DFKCNQD1BWP7T
*I *444:CN I *C 523.0325 178.9375 *L 0.00324 *D DFKCNQD1BWP7T
*I *446:CN I *C 523.0325 174.9825 *L 0.00324 *D DFKCNQD1BWP7T
*I *452:SN I *C 523.6 167.1525 *L 0.00299 *D DFKSND1BWP7T
*I *442:CN I *C 521.9125 163.2575 *L 0.00324 *D DFKCNQD1BWP7T
*I *455:CN I *C 526.9675 159.3025 *L 0.00324 *D DFKCNQD1BWP7T
*I *456:CN I *C 544.8875 163.2575 *L 0.00324 *D DFKCNQD1BWP7T
*I *448:CN I *C 548.2325 178.9375 *L 0.00324 *D DFKCNQD1BWP7T
*I *508:CN I *C 556.0875 163.2575 *L 0.00324 *D DFKCNQD1BWP7T
*I *492:CN I *C 488.3275 155.4175 *L 0.00324 *D DFKCNQD1BWP7T
*I *494:CN I *C 488.8875 167.1425 *L 0.00324 *D DFKCNQD1BWP7T
*I *500:CN I *C 499.5275 171.0975 *L 0.00324 *D DFKCNQD1BWP7T
*I *498:CN I *C 497.8475 186.7775 *L 0.00324 *D DFKCNQD1BWP7T
*I *496:CN I *C 496.1525 182.8225 *L 0.00324 *D DFKCNQD1BWP7T
*I *504:SN I *C 496.72 159.3125 *L 0.00299 *D DFKSND1BWP7T
*I *490:CN I *C 504.5525 147.5775 *L 0.00324 *D DFKCNQD1BWP7T
*I *488:CN I *C 512.9675 143.6225 *L 0.00324 *D DFKCNQD1BWP7T
*I *486:CN I *C 512.9675 147.5775 *L 0.00324 *D DFKCNQD1BWP7T
*I *484:CN I *C 525.2875 147.5775 *L 0.00324 *D DFKCNQD1BWP7T
*I *482:CN I *C 528.0875 151.4625 *L 0.00324 *D DFKCNQD1BWP7T
*I *480:CN I *C 540.9675 155.4175 *L 0.00324 *D DFKCNQD1BWP7T
*I *478:CN I *C 554.4075 143.6225 *L 0.00324 *D DFKCNQD1BWP7T
*I *507:CN I *C 555.5275 147.5775 *L 0.00324 *D DFKCNQD1BWP7T

*CAP
1 *543:CN 1.72986e-05
2 *583:CN 1.75233e-05
3 *584:CN 1.75233e-05
4 *586:CN 1.71863e-05
5 *585:CN 1.71863e-05
6 *538:CN 1.72612e-05
7 *578:CN 1.72612e-05
8 *535:CN 1.72237e-05
9 *537:CN 1.72237e-05
10 *561:CN 1.72612e-05
11 *545:CN 1.75607e-05
12 *541:CN 1.72237e-05
13 *444:CN 1.75233e-05
14 *442:CN 1.72237e-05
15 *456:CN 1.71863e-05
16 *448:CN 1.75233e-05
17 *508:CN 1.71863e-05
18 *492:CN 1.71863e-05
19 *500:CN 1.72612e-05
20 *498:CN 1.71863e-05
21 *490:CN 1.72237e-05
22 *486:CN 1.71863e-05
23 *480:CN 1.72237e-05
24 *507:CN 1.7673e-05
25 *23:53 0.00119757
26 *23:54 0.000323881
27 *23:55 0.000174147
28 *23:56 0.000766082
29 *23:57 0.000422768
30 *23:58 1.12703e-05
31 *23:59 9.181e-05
32 *23:60 0.0004264
33 *23:61 0.000567185
34 *23:62 9.63031e-05
35 *23:63 0.000230161
36 *23:64 9.54419e-05
37 *23:65 0.00195673
38 *23:66 9.54794e-05
39 *23:67 0.001387
40 *23:68 0.000364956
41 *23:69 0.0013339
42 *23:70 0.000360088
43 *23:71 0.000729462
44 *23:72 0.00242177
45 *23:73 0.000570068
46 *23:74 0.000168231
47 *23:75 8.79908e-05
48 *23:76 0.000867215
49 *23:77 4.78146e-05
50 *23:78 0.000103492
51 *23:79 0.00056857
52 *23:80 0.00056741
53 *23:81 0.000282544
54 *23:82 7.21525e-05
55 *23:84 0.000122738
56 *23:85 0.000463543
57 *23:86 9.85123e-05
58 *23:87 0.000806857
59 *23:88 0.00125778
60 *23:89 0.000645665
61 *23:90 9.61533e-05
62 *23:91 0.000339907
63 *23:92 0.000283892
64 *23:93 0.00039858
65 *23:94 0.000439954
66 *23:96 4.3284e-05
67 *23:97 0.000753051
68 *23:98 0.000227054
69 *23:99 6.64611e-05
70 *23:100 0.000532101
71 *23:101 0.000512593
72 *23:102 0.000214847
73 *23:103 7.84803e-05
74 *23:105 0.00153793
75 *23:106 0.000177367
76 *23:107 0.000438344
77 *23:108 0.000288048
78 *23:109 8.90018e-05
79 *23:110 0.000242817
80 *23:111 8.522e-05
81 *23:112 0.000120641
82 *23:113 0.000284603
83 *23:114 6.53753e-05
84 *23:115 0.000168343
85 *23:117 0.000746686
86 *23:118 0.000560932
87 *23:119 0.000531652
88 *23:120 0.000814083
89 *23:121 0.000739535
90 *23:122 0.000393787
91 *23:123 0.000100197
92 *23:124 8.99378e-05
93 *23:125 8.99753e-05
94 *23:126 0.000100909
95 *23:127 9.60036e-05
96 *23:128 0.000232183
97 *23:129 4.00639e-05
98 *23:130 0.00033766
99 *23:131 0.000179801
100 *23:132 0.000389294
101 *23:133 5.83735e-05
102 *23:134 0.000124086
103 *23:135 0.000169504
104 *23:136 0.000405619
105 *23:137 0.000836924
106 *23:138 0.0003854
107 *23:139 0.000393413
108 *23:140 0.00118031
109 *23:141 0.000263036
110 *23:142 0.00182575
111 *23:143 0.00157519
112 *23:144 0.000869536
113 *23:145 0.000577482
114 *23:146 8.63433e-05
115 *23:147 8.34602e-05
116 *23:148 7.2115e-05
117 *23:149 8.41342e-05
118 *23:150 8.04273e-05
119 *23:151 6.74721e-05
120 *23:152 7.2115e-05
121 *23:153 9.89616e-05
122 *23:154 3.16767e-05
123 *23:155 0.000204813
124 *23:156 0.000109071
125 *23:157 0.000411198
126 *23:158 0.000693742
127 *23:159 9.06867e-05
128 *23:160 0.000189012
129 *23:161 9.16228e-05
130 *23:162 9.77634e-05
131 *23:163 0.000100909
132 *23:164 0.000101583
133 *23:165 7.15534e-05
134 *23:166 4.90502e-06
135 *23:167 0.000151494
136 *23:168 0.000950188
137 *23:169 0.000137266
138 *23:170 0.000101882
139 *23:171 8.35725e-05
140 *23:172 7.35753e-05
141 *23:173 7.97908e-05
142 *23:174 0.000444185
143 *23:175 0.000102331
144 *23:176 3.48593e-05
145 *23:177 9.64154e-05
146 *23:178 3.28e-05
147 *23:179 8.04273e-05
148 *23:180 8.96383e-05
149 *23:182 8.35725e-05
150 *23:183 0.00106364
151 *23:184 8.43214e-05
152 *23:185 0.00010162
153 *23:186 0.000118994
154 *23:187 0.000119742
155 *23:188 0.000141235
156 *23:189 0.000100347
157 *23:190 0.000102818
158 *23:191 8.34602e-05
159 *23:192 0.000550785
160 *23:193 0.000124984
161 *23:194 0.000130264
162 *23:195 7.24146e-05
163 *23:196 0.000142395
164 *23:197 0.000148873
165 *23:198 0.000550036
166 *23:199 7.93789e-05
167 *23:200 2.60977e-05
168 *23:201 0.000548913
169 *23:202 0.000263298
170 *23:203 7.95661e-05
171 *23:204 0.000862834
172 *23:205 0.000714148
173 *23:206 0.00014584
174 *23:207 0.000100796
175 *23:208 0.000522778
176 *23:210 0.000666558
177 *23:211 0.000443212
178 *23:212 0.00108933
179 *23:213 5.18584e-05
180 *23:214 5.68383e-05
181 *23:215 0.00127811
182 *23:216 0.00037237
183 *23:217 7.11415e-06
184 *23:218 8.42091e-05
185 *23:219 3.44475e-06
186 *23:220 0.000777015
187 *23:221 0.000144792
188 *23:223 0.00182718
189 *23:224 8.00155e-05
190 *23:225 2.3252e-05
191 *23:226 9.32328e-06
192 *23:227 0.000854409
193 *23:228 0.000494995
194 *23:229 0.000651244
195 *23:230 0.00017703
196 *23:231 2.3926e-05
197 *23:232 0.000136741
198 *23:233 0.000694678
199 *23:234 0.000102369
200 *23:235 0.000373605
201 *23:236 0.000518322
202 *23:237 0.000949365
203 *23:238 7.93415e-05
204 *23:239 0.000404982
205 *23:240 0.000375814
206 *23:241 2.38511e-05
207 *23:242 0.00127149
208 *23:243 0.000665884
209 *23:244 0.00245382
210 *23:245 0.000114575
211 *23:246 0.000347844
212 *23:247 0.000317104
213 *23:248 3.72931e-05
214 *23:249 0.000345897
215 *23:251 0.000400452
216 *23:252 0.000934986
217 *23:253 0.000273146
218 *23:254 0.00048204
219 *23:255 5.56776e-05
220 *23:256 6.7884e-05
221 *23:257 0.000132361
222 *23:258 0.000209718
223 *23:259 0.000407229
224 *23:260 1.95452e-05
225 *23:261 0.000642707
226 *23:262 0.000822808
227 *23:264 0.000198709
228 *23:266 0.000238137
229 *23:267 0.000592684
230 *23:268 0.000666933
231 *23:269 0.000217843
232 *23:270 0.000287449
233 *23:272 2.54237e-05
234 *23:273 0.000640423
235 *23:274 0.000199496
236 *23:275 8.20374e-05
237 *23:276 1.90959e-06
238 *23:277 0.000493909
239 *23:278 0.00100298
240 *23:279 9.48054e-05
241 *23:280 0.000860438
242 *23:281 0.000617209
243 *23:109 *35:14 0.00195938
244 *23:118 *21:5 0.00047887
245 *23:60 *22:4 0.00072786
246 *23:75 *7:42 4.649e-05
247 *23:76 *7:42 1.69e-06
248 *23:75 *7:46 2.47e-06
249 *23:63 *7:47 5.227e-05
250 *23:77 *7:48 1.98e-06
251 *23:78 *7:48 4.192e-05
252 *23:79 *7:48 3.71e-06
253 *23:80 *7:48 1.63e-05
254 *23:81 *7:48 5.61e-06
255 *23:82 *7:65 7.352e-05
256 *23:72 *7:65 3.743e-05
257 *23:80 *7:67 8.088e-05
258 *23:83 *7:69 5.4e-07
259 *23:84 *7:69 3.53e-06
260 *23:85 *7:69 1.291e-05
261 *23:86 *7:69 3.63e-06
262 *23:87 *7:69 4.703e-05
263 *23:88 *7:69 6.02e-06
264 *23:89 *7:76 3.02e-06
265 *23:63 *7:85 2.591e-05
266 *23:65 *7:85 2.507e-05
267 *23:75 *7:90 9.29e-06
268 *23:90 *7:101 2.8e-06
269 *23:91 *7:101 4.225e-05
270 *23:72 *7:111 4.528e-05
271 *23:67 *7:113 2.966e-05
272 *23:92 *7:113 2.975e-05
273 *23:93 *7:113 2.69e-06
274 *23:94 *7:113 3.333e-05
275 *23:80 *7:113 2.168e-05
276 *23:95 *7:113 1.667e-05
277 *23:88 *7:115 7.336e-05
278 *23:96 *7:115 1.406e-05
279 *23:64 *7:116 3.66e-06
280 *23:67 *7:116 0.00015804
281 *23:92 *7:116 5.385e-05
282 *23:93 *7:116 9.19e-06
283 *23:97 *7:118 0.00017617
284 *23:94 *7:125 4.53e-05
285 *23:91 *7:129 1.968e-05
286 *23:97 *7:131 0.00046603
287 *23:98 *7:131 0.00013648
288 *23:99 *7:131 2.987e-05
289 *23:100 *7:131 4.76e-05
290 *23:101 *7:131 4.248e-05
291 *23:102 *7:131 1.458e-05
292 *23:64 *7:139 9.282e-05
293 *23:65 *7:139 6.827e-05
294 *23:103 *7:140 2.89e-06
295 *23:94 *7:140 2.012e-05
296 *23:104 *7:140 2.28e-05
297 *23:105 *7:140 6.41e-06
298 *23:106 *7:140 1.061e-05
299 *23:100 *7:144 8.235e-05
300 *23:101 *7:144 1.1e-06
301 *23:65 *7:151 4.898e-05
302 *23:107 *7:155 6.54e-06
303 *23:88 *7:155 9.174e-05
304 *23:75 *7:157 1.908e-05
305 *23:101 *7:157 0.00012998
306 *23:76 *7:157 3.28e-06
307 *23:89 *7:160 1.732e-05
308 *23:65 *7:164 9.127e-05
309 *23:108 *7:166 9.19e-06
310 *23:72 *7:173 0.00027272
311 *23:65 *7:174 2.59e-06
312 *23:109 *7:34 4.3e-07
313 *23:110 *7:34 0.00029622
314 *23:108 *7:34 1.217e-05
315 *23:89 *7:180 4.67e-06
316 *23:111 *7:182 3e-07
317 *23:112 *7:182 2.806e-05
318 *23:113 *7:182 2.291e-05
319 *23:72 *7:184 0.0001868
320 *23:89 *7:190 4.74e-06
321 *23:70 *7:192 4.71e-06
322 *23:72 *7:192 0.00012834
323 *23:72 *7:197 4.068e-05
324 *23:114 *7:199 5.383e-05
325 *23:87 *7:200 2.173e-05
326 *23:89 *7:203 6.17e-06
327 *23:70 *7:204 6.432e-05
328 *23:72 *7:204 1.22e-05
329 *23:63 *7:210 1.972e-05
330 *23:70 *7:210 2.829e-05
331 *23:72 *7:210 3.152e-05
332 *23:72 *7:215 2.152e-05
333 *23:83 *7:219 1.21e-06
334 *23:85 *7:219 4.689e-05
335 *23:115 *7:219 1.533e-05
336 *23:116 *7:219 1.48e-06
337 *23:117 *618:B1 4.14899549e-05
338 *23:136 *135:7 0.00018223
339 *23:119 *72:4 0.00045556
340 *23:150 *361:8 0.00054476
341 *23:118 *26:15 0.00136146
342 *23:132 *27:9 0.00099973
343 *23:132 *395:2 0.00094638
344 *23:53 *12:3 0.00111305
345 *23:127 *29:14 0.00067708
346 *23:130 *110:4 0.00154296
347 *23:60 *350:47 0.00078795
348 *23:54 *31:26 0.0009509
349 *23:63 *32:12 0.00115899

*RES
1 *23:93 *23:186 0.103912
2 *23:92 *23:186 1.88336
3 *23:67 *23:92 7.27381
4 *23:67 *23:135 7.27296
5 *23:218 *23:135 0.126178
6 *23:161 *23:218 6.98349
7 *23:161 *559:CN 0.126501
8 *23:211 *23:218 1.2599
9 *23:194 *23:211 0.415646
10 *23:71 *23:194 1.87041
11 *23:71 *23:205 0.389735
12 *23:205 *23:125 9.69815
13 *23:125 *560:CN 0.126501
14 *23:67 *23:64 0.613078
15 *23:65 *23:64 9.36244
16 *23:65 *23:63 1.88525
17 *23:72 *23:63 3.1025
18 *23:70 *23:72 6.98349
19 *23:70 *23:151 8.23043
20 *536:CN *23:151 0.126501
21 *23:72 *23:166 14.0495
22 *23:166 *23:82 0.289468
23 *23:68 *23:82 0.541825
24 *23:68 *23:176 6.98349
25 *23:176 *23:139 1.0792
26 *23:101 *23:139 8.19035
27 *23:100 *23:101 2.09119
28 *23:99 *23:100 0.207823
29 *23:98 *23:99 0.402691
30 *23:102 *23:98 7.19131
31 *23:102 *23:97 7.39913
32 *23:97 *23:175 9.68519
33 *23:175 *576:CN 0.126501
34 *23:190 *23:98 6.98349
35 *23:190 *575:CN 0.126501
36 *23:101 *23:75 0.541825
37 *23:231 *23:75 0.289468
38 *23:76 *23:231 9.67223
39 *23:76 *23:260 0.103912
40 *23:252 *23:260 2.51979
41 *23:247 *23:252 0.103912
42 *23:247 *23:61 8.42529
43 *23:61 *23:200 1.85745
44 *23:200 *23:208 0.207823
45 *23:208 *23:214 1.66259
46 *23:214 *23:221 0.207823
47 *23:239 *23:221 8.45121
48 *23:234 *23:239 0.207823
49 *23:234 *23:158 2.33842
50 *23:281 *23:158 0.350331
51 *23:281 *23:278 7.81478
52 *23:238 *23:278 6.98349
53 *456:CN *23:238 0.126501
54 *23:278 *23:279 2.50683
55 *23:277 *23:279 0.181912
56 *23:277 *23:230 8.45121
57 *23:230 *23:141 0.679492
58 *23:129 *23:141 1.09152
59 *23:192 *23:129 8.8539
60 *23:165 *23:192 6.98349
61 *448:CN *23:165 0.126501
62 *23:281 *23:275 8.43825
63 *23:273 *23:275 2.07823
64 *23:280 *23:273 7.39913
65 *23:280 *23:269 11.7634
66 *23:269 *23:155 1.12076
67 *23:160 *23:155 7.10967
68 *23:160 *482:CN 0.126501
69 *23:269 *23:271 1.05207
70 *23:266 *23:271 0.389735
71 *23:264 *23:266 0.597558
72 *23:264 *23:265 0.233735
73 *23:243 *23:265 1.0132
74 *23:62 *23:243 0.194867
75 *23:62 *23:60 9.56792
76 *23:121 *23:60 0.948564
77 *23:121 *23:250 9.89301
78 *23:250 *23:168 2.15988
79 *23:254 *23:168 0.334002
80 *23:274 *23:254 7.594
81 *23:274 *23:276 0.233735
82 *23:122 *23:276 1.87041
83 *23:272 *23:122 0.207823
84 *23:270 *23:272 0.610514
85 *23:268 *23:270 0.831293
86 *23:55 *23:268 6.98349
87 *23:55 *23:159 7.19131
88 *23:159 *557:CN 0.126501
89 *23:268 *23:217 9.26954
90 *23:119 *23:217 2.28606
91 *23:267 *23:119 8.23043
92 *23:267 *23:56 10.5294
93 *23:56 *23:232 0.597558
94 *23:232 *23:123 7.20427
95 *23:123 *558:CN 0.126501
96 *23:217 *23:118 0.334002
97 *23:120 *23:118 1.53641
98 *23:149 *23:120 6.98349
99 *492:CN *23:149 0.126501
100 *23:120 *23:213 2.2731
101 *23:213 *23:220 0.207823
102 *23:220 *23:164 8.86685
103 *23:164 *494:CN 0.126501
104 *23:270 *23:54 7.31749
105 *23:241 *23:54 1.13372
106 *23:229 *23:241 0.181912
107 *23:229 *23:53 1.67554
108 *23:53 *23:185 7.22353
109 *23:185 *504:SN 0.139457
110 *23:53 *23:237 4.76698
111 *23:237 *23:58 3.69736
112 *23:57 *23:58 0.264232
113 *23:59 *23:57 6.98349
114 *23:59 *496:CN 0.126501
115 *23:57 *23:188 1.85745
116 *23:188 *23:197 0.62347
117 *23:197 *23:173 7.20427
118 *498:CN *23:173 0.126501
119 *23:237 *23:245 1.22103
120 *23:245 *23:199 7.20427
121 *500:CN *23:199 0.126501
122 *23:254 *23:182 8.0226
123 *490:CN *23:182 0.126501
124 *23:121 *23:258 7.61991
125 *23:255 *23:258 0.207823
126 *23:255 *23:174 1.52345
127 *23:257 *23:174 0.139134
128 *23:257 *23:263 0.181912
129 *23:262 *23:263 1.2599
130 *23:203 *23:262 6.98349
131 *486:CN *23:203 0.126501
132 *23:262 *23:189 8.64607
133 *23:189 *488:CN 0.126501
134 *23:243 *23:246 2.09119
135 *23:150 *23:246 6.98349
136 *442:CN *23:150 0.126501
137 *23:246 *23:251 1.24694
138 *23:251 *23:256 1.44181
139 *23:256 *23:259 0.207823
140 *23:259 *23:261 1.46772
141 *23:170 *23:261 6.98349
142 *23:170 *446:CN 0.126501
143 *23:261 *23:191 8.64607
144 *444:CN *23:191 0.126501
145 *23:251 *23:196 7.47654
146 *23:196 *452:SN 0.139457
147 *23:264 *23:132 2.14692
148 *23:145 *23:132 8.35661
149 *484:CN *23:145 0.0303822
150 *23:266 *23:207 7.61991
151 *23:207 *455:CN 0.126501
152 *23:224 *23:273 6.98349
153 *480:CN *23:224 0.126501
154 *23:221 *23:179 7.60696
155 *508:CN *23:179 0.126501
156 *23:61 *23:133 0.289468
157 *23:204 *23:133 1.38607
158 *23:204 *23:124 8.63312
159 *23:124 *478:CN 0.126501
160 *23:204 *23:169 7.17836
161 *507:CN *23:169 0.126501
162 *23:68 *23:146 7.81478
163 *535:CN *23:146 0.126501
164 *23:65 *23:134 7.27296
165 *23:183 *23:134 0.126178
166 *23:66 *23:183 6.98349
167 *23:66 *577:CN 0.126501
168 *23:183 *23:147 11.14
169 *578:CN *23:147 0.126501
170 *23:92 *23:156 7.27296
171 *23:223 *23:156 5.54254
172 *23:223 *23:117 0.597558
173 *23:117 *23:184 8.65903
174 *537:CN *23:184 0.126501
175 *23:93 *23:78 1.47743
176 *23:225 *23:78 0.159241
177 *23:225 *23:81 0.103912
178 *23:81 *23:80 7.61991
179 *23:80 *23:77 0.289468
180 *23:79 *23:77 8.35661
181 *538:CN *23:79 0.126501
182 *23:80 *23:95 2.29901
183 *23:94 *23:95 0.597558
184 *23:94 *23:104 1.88336
185 *23:103 *23:104 6.98349
186 *586:CN *23:103 0.126501
187 *23:106 *23:104 7.594
188 *23:105 *23:106 0.441558
189 *23:105 *23:248 6.20878
190 *23:248 *23:253 0.415646
191 *23:253 *23:209 7.61991
192 *23:171 *23:209 6.98349
193 *585:CN *23:171 0.126501
194 *23:201 *23:209 1.46772
195 *23:201 *23:222 0.181912
196 *23:215 *23:222 1.2599
197 *23:215 *23:157 1.74423
198 *23:69 *23:157 11.2661
199 *561:CN *23:69 0.126501
200 *23:215 *23:142 10.3695
201 *23:108 *23:142 7.83642
202 *23:110 *23:108 6.98349
203 *23:110 *23:109 8.0226
204 *23:109 *580:CN 0.126501
205 *23:108 *23:235 1.66259
206 *23:210 *23:235 6.98349
207 *23:202 *23:210 0.636425
208 *23:202 *23:226 0.389735
209 *23:226 *23:136 1.13372
210 *23:240 *23:136 1.37312
211 *23:195 *23:240 6.98349
212 *584:CN *23:195 0.126501
213 *23:236 *23:240 1.66259
214 *23:177 *23:236 6.98349
215 *23:177 *582:CN 0.126501
216 *23:249 *23:236 7.19131
217 *23:244 *23:249 4.57211
218 *23:227 *23:244 6.98349
219 *23:227 *23:162 9.68519
220 *23:162 *581:CN 0.126501
221 *23:244 *23:219 12.1791
222 *23:74 *23:219 0.636425
223 *23:73 *23:74 1.45476
224 *23:73 *23:126 7.60696
225 *23:126 *562:CN 0.126501
226 *23:249 *23:140 1.33304
227 *23:178 *23:140 4.07037
228 *23:89 *23:178 6.98349
229 *23:89 *23:127 9.68519
230 *23:127 *546:CN 0.126501
231 *23:210 *23:216 2.7017
232 *23:172 *23:216 6.98349
233 *583:CN *23:172 0.126501
234 *23:216 *23:180 8.23043
235 *23:180 *579:CN 0.126501
236 *23:235 *23:143 1.74868
237 *23:181 *23:143 6.96694
238 *23:114 *23:181 0.233735
239 *23:114 *23:187 0.610514
240 *23:167 *23:187 6.98349
241 *23:152 *23:167 6.98349
242 *545:CN *23:152 0.126501
243 *23:187 *23:193 0.610514
244 *23:193 *23:85 0.415646
245 *23:85 *23:116 2.49388
246 *23:115 *23:116 0.441558
247 *23:115 *23:83 0.514024
248 *23:84 *23:83 0.0964893
249 *23:84 *23:86 0.610514
250 *23:86 *23:87 0.415646
251 *23:87 *23:96 3.53299
252 *23:88 *23:96 0.441558
253 *23:88 *23:107 12.5818
254 *23:130 *23:107 6.98349
255 *23:130 *23:144 1.68427
256 *23:131 *23:144 4.38778
257 *23:138 *23:131 8.5199
258 *23:228 *23:138 1.37312
259 *23:111 *23:228 6.98349
260 *541:CN *23:111 0.126501
261 *23:113 *23:228 0.636425
262 *23:112 *23:113 0.415646
263 *23:212 *23:112 3.93569
264 *23:163 *23:212 6.98349
265 *23:163 *542:CN 0.126501
266 *23:206 *23:212 0.428602
267 *23:198 *23:206 0.831293
268 *23:198 *23:148 7.80183
269 *543:CN *23:148 0.126501
270 *23:242 *23:212 10.1008
271 *23:242 *23:233 8.0226
272 *420:Z *23:233 6.98349
273 *23:131 *23:154 2.02402
274 *23:91 *23:154 8.23043
275 *23:90 *23:91 6.98349
276 *23:90 *544:CN 0.126501
277 *23:107 *23:153 8.23043
278 *23:153 *540:CN 0.126501
279 *23:84 *23:137 8.5199
280 *23:137 *23:128 7.10967
281 *23:128 *539:CN 0.126501
*END

*D_NET *24 0.00489832

*CONN
*I *437:Z O *C 557.48 156.8 *L 0 *D CKBD1BWP7T
*I *441:CP I *C 545.72 159.04 *L 0.00575 *D CKLNQD1BWP7T
*I *477:CP I *C 546.84 166.88 *L 0.00575 *D CKLNQD1BWP7T

*CAP
1 *24:3 0.000197194
2 *24:4 0.000552517
3 *24:5 0.000335621
4 *24:6 0.000146098
5 *24:7 9.27373e-05
6 *24:8 0.00170146
7 *24:9 1.75227e-05
8 *24:10 0.00185517

*RES
1 *437:Z *24:6 6.98346
2 *24:6 *24:7 0.0862655
3 *24:8 *24:7 8.9402
4 *24:10 *24:8 9.1480484
5 *24:9 *24:10 6.98346
6 *24:9 *24:5 7.17371
7 *477:CP *24:5 6.98346
8 *24:8 *24:3 0.190259
9 *24:4 *24:3 7.38156
10 *441:CP *24:4 6.98346
*END

*D_NET *25 0.00912963

*CONN
*I *476:I I *C 546.84 151.2 *L 0.00464 *D CKBD2BWP7T
*I *475:I I *C 508.2 151.76 *L 0.00422 *D CKBD1BWP7T
*I *477:Q O *C 549.08 166.32 *L 0 *D CKLNQD1BWP7T

*CAP
1 *25:3 0.00209113
2 *25:4 9.7984e-06
3 *25:5 0.00209849
4 *25:6 0.000116972
5 *25:7 0.000155686
6 *25:8 0.00121872
7 *25:9 0.0017633
8 *25:10 0.000652938
9 *25:11 0.000419666
10 *25:12 9.15478e-05
11 *25:13 0.000202852
12 *25:3 *34:6 0.00030856

*RES
1 *25:13 *25:10 7.48541
2 *477:Q *25:10 6.98346
3 *25:13 *25:9 9.1480484
4 *25:12 *25:9 6.98346
5 *25:11 *25:12 0.398105
6 *25:11 *25:6 0.231716
7 *25:3 *25:6 2.81186
8 *25:3 *25:5 2.81186
9 *25:8 *25:5 8.28023
10 *475:I *25:8 6.98346
11 *25:11 *25:4 7.01556
12 *25:7 *25:4 0.0542998
13 *476:I *25:7 6.98346
*END

*D_NET *26 0.0113117

*CONN
*I *504:CP I *C 500.06 159.315 *L 0.00289 *D DFKSND1BWP7T
*I *475:Z O *C 507.08 150.08 *L 0 *D CKBD1BWP7T
*I *500:CP I *C 497.925 171.1075 *L 0.00294 *D DFKCNQD1BWP7T
*I *498:CP I *C 496.245 186.7875 *L 0.00294 *D DFKCNQD1BWP7T
*I *496:CP I *C 497.755 182.8125 *L 0.00294 *D DFKCNQD1BWP7T
*I *494:CP I *C 487.285 167.1325 *L 0.00294 *D DFKCNQD1BWP7T
*I *492:CP I *C 486.725 155.4275 *L 0.00294 *D DFKCNQD1BWP7T
*I *490:CP I *C 506.155 147.5875 *L 0.00294 *D DFKCNQD1BWP7T

*CAP
1 *26:8 0.0013351
2 *26:9 2.30003e-05
3 *26:10 0.000191011
4 *26:11 0.000883527
5 *26:12 0.000156785
6 *26:13 0.00018985
7 *26:14 0.000993904
8 *26:15 0.000183147
9 *26:16 0.000378151
10 *26:17 0.000366355
11 *26:18 0.000113087
12 *26:20 0.000197795
13 *26:23 8.52378e-05
14 *26:24 0.000217882
15 *26:25 0.000127449
16 *26:26 0.000376542
17 *26:29 0.00130666
18 *26:30 2.44468e-06
19 *26:31 0.00128445
20 *26:15 *23:118 0.00136146
21 *26:8 *12:3 0.00040064
22 *26:10 *22:3 0.00049122
23 *26:10 *348:17 0.00064599

*RES
1 *26:11 *26:23 3.11736
2 *26:23 *26:17 8.02261
3 *490:CP *26:17 6.98354
4 *26:23 *26:20 7.39907
5 *26:20 *26:21 0.207847
6 *475:Z *26:21 6.98354
7 *26:11 *26:10 7.52535
8 *26:14 *26:10 1.53633
9 *26:29 *26:14 6.98354
10 *26:29 *26:30 1.03907
11 *26:13 *26:30 6.98354
12 *26:13 *26:18 8.23046
13 *26:18 *504:CP 0.126443
14 *26:29 *26:22 10.9321289
15 *26:15 *26:22 0.207847
16 *492:CP *26:15 6.98354
17 *26:14 *26:31 4.36428
18 *26:8 *26:31 6.98354
19 *26:8 *26:24 10.7243
20 *494:CP *26:24 6.98354
21 *26:8 *26:26 7.19139
22 *26:26 *26:28 1.24691
23 *500:CP *26:28 6.98354
24 *26:31 *26:9 5.34696
25 *26:27 *26:9 0.264229
26 *26:25 *26:27 6.98354
27 *26:25 *26:12 7.19139
28 *496:CP *26:12 6.98354
29 *26:25 *26:16 7.39907
30 *26:16 *26:19 1.45476
31 *498:CP *26:19 6.98354
*END

*D_NET *27 0.0141907

*CONN
*I *508:CP I *C 554.485 163.2675 *L 0.00294 *D DFKCNQD1BWP7T
*I *476:Z O *C 549.08 150.64 *L 0 *D CKBD2BWP7T
*I *507:CP I *C 553.925 147.5875 *L 0.00294 *D DFKCNQD1BWP7T
*I *488:CP I *C 511.365 143.6125 *L 0.00294 *D DFKCNQD1BWP7T
*I *486:CP I *C 511.365 147.5875 *L 0.00294 *D DFKCNQD1BWP7T
*I *484:CP I *C 523.685 147.5875 *L 0.00294 *D DFKCNQD1BWP7T
*I *482:CP I *C 526.485 151.4525 *L 0.00294 *D DFKCNQD1BWP7T
*I *480:CP I *C 539.365 155.4275 *L 0.00294 *D DFKCNQD1BWP7T
*I *478:CP I *C 552.805 143.6125 *L 0.00294 *D DFKCNQD1BWP7T

*CAP
1 *27:9 6.75522e-05
2 *27:10 0.000313665
3 *27:12 0.00049297
4 *27:13 0.000603483
5 *27:14 0.000381862
6 *27:15 9.46723e-05
7 *27:16 0.000594658
8 *27:17 0.00047356
9 *27:18 0.000409602
10 *27:19 0.00117152
11 *27:20 0.000552019
12 *27:21 0.000177346
13 *27:22 0.000407743
14 *27:23 0.000638759
15 *27:25 0.000140459
16 *27:26 0.00010734
17 *27:27 0.000426409
18 *27:28 0.000129304
19 *27:29 9.06563e-05
20 *27:30 0.000598971
21 *27:31 0.000244973
22 *27:33 7.43694e-05
23 *27:34 0.000347305
24 *27:35 0.000628769
25 *27:36 0.000437565
26 *27:37 0.00053717
27 *27:38 0.0016246
28 *27:39 0.00137345
29 *27:40 5.01994e-05
30 *27:9 *23:132 0.00099973

*RES
1 *482:CP *27:11 6.98353
2 *27:11 *27:9 0.081652
3 *27:10 *27:9 0.957539
4 *27:31 *27:10 7.3991
5 *27:35 *27:31 7.60697
6 *27:27 *27:35 6.98353
7 *27:27 *27:21 7.60697
8 *484:CP *27:21 6.98353
9 *27:35 *27:38 6.98353
10 *27:38 *27:19 3.83143
11 *27:30 *27:19 8.34769
12 *27:26 *27:30 6.98353
13 *27:24 *27:26 6.98353
14 *27:17 *27:24 1.24688
15 *488:CP *27:17 6.98353
16 *486:CP *27:24 6.98353
17 *27:38 *27:37 11.9712448
18 *27:37 *27:18 1.58098
19 *27:29 *27:18 8.31207
20 *27:29 *27:16 0.207875
21 *27:25 *27:16 6.98353
22 *480:CP *27:25 6.98353
23 *27:16 *27:20 2.22068
24 *27:34 *27:20 1.31228
25 *27:34 *27:23 8.23041
26 *476:Z *27:23 6.98353
27 *27:34 *27:36 0.831316
28 *27:36 *27:40 6.98353
29 *27:39 *27:40 0.181936
30 *27:39 *27:14 9.90602
31 *27:14 *27:33 8.43829
32 *508:CP *27:33 6.98353
33 *27:36 *27:15 7.60697
34 *27:15 *27:12 1.32853
35 *27:13 *27:12 1.80164
36 *27:22 *27:13 1.02622
37 *478:CP *27:22 6.98353
38 *27:13 *27:28 0.389811
39 *27:28 *27:32 0.220844
40 *507:CP *27:32 6.98353
*END

*D_NET *28 0.0635487

*CONN
*I *424:I I *C 672.28 140 *L 0.00464 *D CKBD2BWP7T
*I *423:I I *C 492.52 140 *L 0.00464 *D CKBD2BWP7T
*I *422:I I *C 353.08 147.84 *L 0.00464 *D CKBD2BWP7T
*I *421:I I *C 737.24 140 *L 0.00464 *D CKBD2BWP7T
*I *431:Q O *C 715.4 140 *L 0 *D CKLNQD6BWP7T

*CAP
1 *423:I 3.59513e-05
2 *28:5 0.00189751
3 *28:6 0.00190616
4 *28:7 0.00195819
5 *28:8 0.00196712
6 *28:9 0.0017997
7 *28:10 0.00196343
8 *28:11 0.00195622
9 *28:12 0.00185777
10 *28:13 0.00193944
11 *28:14 0.00193127
12 *28:15 0.00188757
13 *28:16 0.00195146
14 *28:17 0.00202524
15 *28:18 0.000914593
16 *28:19 0.00181674
17 *28:20 0.00176968
18 *28:21 0.00183763
19 *28:22 0.00189569
20 *28:23 0.00191103
21 *28:24 0.000593863
22 *28:25 0.00247375
23 *28:26 0.00134093
24 *28:27 0.000247813
25 *28:28 8.50437e-05
26 *28:29 0.000123025
27 *28:30 0.000104168
28 *28:31 0.000130397
29 *28:32 0.0001078
30 *28:33 0.000291243
31 *28:34 0.000115332
32 *28:35 0.000100428
33 *28:36 0.000104916
34 *28:37 0.000173987
35 *28:38 0.00170643
36 *28:39 0.00173207
37 *28:40 0.00299656
38 *28:41 0.00170232
39 *28:42 0.00169046
40 *28:43 0.00170296
41 *28:44 8.6486e-05
42 *28:45 0.00151396
43 *28:46 0.00350084
44 *28:47 0.00302941
45 *28:12 *115:4 0.00058939
46 *28:5 *197:7 0.00075906
47 *28:8 *184:14 0.00132357

*RES
1 *28:40 *28:45 6.98346
2 *28:45 *28:14 1.96101
3 *28:5 *28:14 2.812
4 *28:5 *28:15 2.812
5 *28:6 *28:15 2.812
6 *28:6 *28:16 2.812
7 *28:7 *28:16 2.812
8 *28:7 *28:17 2.812
9 *28:8 *28:17 2.812
10 *28:8 *28:18 2.812
11 *28:47 *28:18 1.39999
12 *28:42 *28:47 6.98346
13 *28:42 *28:37 8.94015
14 *28:37 *28:32 7.06981
15 *28:28 *28:32 6.98346
16 *423:I *28:28 0.115825
17 *28:47 *28:19 4.20638
18 *28:9 *28:19 2.812
19 *28:9 *28:20 2.812
20 *28:10 *28:20 2.812
21 *28:10 *28:21 2.812
22 *28:11 *28:21 2.812
23 *28:11 *28:22 2.812
24 *28:12 *28:22 2.812
25 *28:12 *28:23 2.812
26 *28:13 *28:23 2.812
27 *28:13 *28:24 2.812
28 *28:46 *28:24 0.804687
29 *28:41 *28:46 6.98346
30 *28:41 *28:33 8.94015
31 *28:33 *28:29 7.17378
32 *424:I *28:29 6.98346
33 *28:46 *28:25 4.80153
34 *28:43 *28:25 3.38984
35 *28:38 *28:43 6.98346
36 *28:38 *28:34 8.83634
37 *28:30 *28:34 6.98346
38 *431:Q *28:30 6.98346
39 *28:43 *28:26 2.21637
40 *28:44 *28:26 1.8186
41 *28:39 *28:44 6.98346
42 *28:39 *28:35 8.94015
43 *28:31 *28:35 6.98346
44 *421:I *28:31 6.98346
45 *28:40 *28:36 10.4988995
46 *28:36 *28:27 7.06981
47 *422:I *28:27 6.98346
*END

*D_NET *29 0.015563

*CONN
*I *546:CP I *C 737.045 135.7725 *L 0.00294 *D DFKCNQD1BWP7T
*I *421:Z O *C 739.48 140.56 *L 0 *D CKBD2BWP7T
*I *545:CP I *C 746.005 155.4275 *L 0.00294 *D DFKCNQD1BWP7T
*I *544:CP I *C 800.885 159.2925 *L 0.00294 *D DFKCNQD1BWP7T
*I *543:CP I *C 792.485 131.9075 *L 0.00294 *D DFKCNQD1BWP7T
*I *542:CP I *C 795.285 135.7725 *L 0.00294 *D DFKCNQD1BWP7T
*I *541:CP I *C 796.405 147.5875 *L 0.00294 *D DFKCNQD1BWP7T
*I *540:CP I *C 785.595 159.2925 *L 0.00294 *D DFKCNQD1BWP7T
*I *539:CP I *C 759.835 151.4525 *L 0.00294 *D DFKCNQD1BWP7T

*CAP
1 *29:9 0.000385899
2 *29:10 0.00265594
3 *29:11 3.55827e-05
4 *29:12 0.00133233
5 *29:13 0.000117609
6 *29:14 0.00017759
7 *29:15 0.000109626
8 *29:16 1.39818e-05
9 *29:17 0.000699335
10 *29:19 0.000373862
11 *29:20 0.000431816
12 *29:21 0.000461563
13 *29:22 0.000188451
14 *29:23 3.97165e-05
15 *29:24 0.000689406
16 *29:28 0.000156394
17 *29:29 0.000506426
18 *29:32 7.88656e-05
19 *29:33 0.000127701
20 *29:34 0.000354976
21 *29:36 0.000421441
22 *29:37 0.00139725
23 *29:38 0.000179332
24 *29:39 0.00153095
25 *29:40 0.000203081
26 *29:9 *7:62 0.00078451
27 *29:14 *23:127 0.00067708
28 *29:23 *111:6 0.00089911
29 *29:23 *90:4 0.00053313

*RES
1 *29:18 *29:17 2.78342
2 *29:40 *29:17 1.37315
3 *29:11 *29:40 6.98352
4 *29:11 *29:9 2.77297
5 *29:10 *29:9 10.52773
6 *29:10 *29:23 0.71999
7 *29:37 *29:23 4.26773
8 *29:34 *29:37 6.98352
9 *29:34 *29:21 1.37315
10 *29:25 *29:21 1.32866
11 *545:CP *29:25 6.98352
12 *29:37 *29:32 9.47730255
13 *29:12 *29:32 2.90952
14 *29:36 *29:12 8.64615
15 *29:36 *29:14 7.81483
16 *29:14 *29:27 0.207869
17 *546:CP *29:27 6.98352
18 *421:Z *29:12 6.98352
19 *29:10 *29:15 8.35668
20 *29:16 *29:15 0.0816053
21 *539:CP *29:16 6.98352
22 *29:11 *29:35 7.3991
23 *29:13 *29:35 0.207869
24 *541:CP *29:13 6.98352
25 *29:39 *29:40 4.57215
26 *29:38 *29:39 6.98352
27 *29:38 *29:33 7.19139
28 *542:CP *29:33 6.98352
29 *29:39 *29:19 8.23041
30 *29:19 *29:30 8.02254
31 *29:28 *29:30 0.207869
32 *543:CP *29:28 6.98352
33 *29:29 *29:18 6.98352
34 *29:29 *29:24 2.77297
35 *29:20 *29:24 7.95138
36 *29:20 *29:31 0.207869
37 *540:CP *29:31 6.98352
38 *29:29 *29:22 9.06173
39 *29:22 *29:26 0.207869
40 *544:CP *29:26 6.98352
*END

*D_NET *30 0.0311324

*CONN
*I *554:CP I *C 327.685 147.5875 *L 0.00294 *D DFKCNQD1BWP7T
*I *422:Z O *C 350.84 148.4 *L 0 *D CKBD2BWP7T
*I *553:CP I *C 327.515 155.4275 *L 0.00294 *D DFKCNQD1BWP7T
*I *552:CP I *C 272.075 155.4275 *L 0.00294 *D DFKCNQD1BWP7T
*I *551:CP I *C 272.635 143.6125 *L 0.00294 *D DFKCNQD1BWP7T
*I *550:CP I *C 227.275 159.2925 *L 0.00294 *D DFKCNQD1BWP7T
*I *549:CP I *C 227.275 143.6125 *L 0.00294 *D DFKCNQD1BWP7T
*I *548:CP I *C 244.075 155.4275 *L 0.00294 *D DFKCNQD1BWP7T
*I *547:CP I *C 228.395 139.7475 *L 0.00294 *D DFKCNQD1BWP7T

*CAP
1 *30:9 0.000553413
2 *30:10 0.000632672
3 *30:11 0.000343659
4 *30:12 4.81199e-05
5 *30:13 1.51518e-05
6 *30:14 0.000951289
7 *30:15 0.0012462
8 *30:16 0.00144053
9 *30:17 7.0317e-05
10 *30:18 0.000124669
11 *30:21 0.000361453
12 *30:22 0.000236829
13 *30:23 0.000149147
14 *30:24 5.49845e-05
15 *30:26 0.000326091
16 *30:27 0.00036895
17 *30:29 4.33554e-06
18 *30:31 0.000803971
19 *30:32 0.000189251
20 *30:33 0.000147837
21 *30:34 1.84486e-05
22 *30:36 1.74099e-05
23 *30:37 0.00133476
24 *30:38 6.68395e-06
25 *30:39 0.00147984
26 *30:40 4.62909e-05
27 *30:41 0.000510848
28 *30:9 *37:8 6.312e-05
29 *30:9 *37:9 0.00065107
30 *30:9 *37:10 0.00068981
31 *30:11 *37:11 5.077e-05
32 *30:11 *37:12 1.259e-05
33 *30:13 *37:13 9.155e-05
34 *30:13 *37:14 0.00025838
35 *30:13 *37:12 4.296e-05
36 *30:14 *37:15 2.2e-06
37 *30:14 *37:16 0.00019527
38 *30:14 *37:9 0.00090884
39 *30:15 *37:8 7.806e-05
40 *30:15 *37:17 5.984e-05
41 *30:15 *37:18 0.00012711
42 *30:15 *37:19 3.073e-05
43 *30:15 *37:20 4.36e-06
44 *30:15 *37:9 0.00022967
45 *30:15 *37:10 0.00012031
46 *30:15 *37:21 4.425e-05
47 *30:16 *37:17 0.00100878
48 *30:16 *37:21 0.00013794
49 *30:16 *37:22 0.00025778
50 *30:21 *37:23 2.445e-05
51 *30:21 *37:24 1.369e-05
52 *30:21 *37:9 4.5e-07
53 *30:23 *37:9 3.85e-06
54 *30:25 *37:11 1.068e-05
55 *30:29 *37:22 2.33e-06
56 *30:30 *37:23 4.41e-06
57 *30:32 *37:23 8.29e-06
58 *30:32 *37:9 2.228e-05
59 *30:34 *37:22 3.561e-05
60 *30:35 *37:9 1.107e-05
61 *30:36 *37:17 3.216e-05
62 *30:37 *37:15 0.00082087
63 *30:37 *37:11 6.47e-06
64 *30:37 *37:13 0.00095013
65 *30:37 *37:16 0.00031933
66 *30:37 *37:12 1.173e-05
67 *30:38 *37:17 0.00043511
68 *30:39 *37:13 1.192e-05
69 *30:39 *37:14 0.00022552
70 *30:39 *37:12 0.00022883
71 *30:39 *37:25 1.228e-05
72 *30:40 *37:15 0.00063636
73 *30:40 *37:16 2.692e-05
74 *30:41 *37:17 0.00028083
75 *30:41 *37:21 0.000133340066
76 *30:9 *36:11 0.00057989
77 *30:9 *36:12 0.00032956
78 *30:9 *36:13 0.00045497
79 *30:13 *36:14 0.0002937
80 *30:13 *36:15 9.542e-05
81 *30:14 *36:16 1.6e-06
82 *30:14 *36:11 0.0003681
83 *30:14 *36:12 0.00074045
84 *30:15 *36:11 0.0004228
85 *30:15 *36:13 0.00107781
86 *30:15 *36:17 0.00045193
87 *30:33 *36:13 0.00041251
88 *30:33 *36:17 2.328e-05
89 *30:37 *36:16 0.00082172
90 *30:37 *36:15 0.00091956
91 *30:37 *36:12 0.00032124
92 *30:39 *36:14 0.00070889
93 *30:39 *36:18 4.24e-06
94 *30:39 *36:15 0.00035107
95 *30:40 *36:16 0.00065242
96 *30:40 *36:12 2.69201148e-05
97 *30:10 *38:35 0.00125692

*RES
1 *30:30 *30:21 1.32859
2 *30:23 *30:21 0.346906
3 *30:23 *30:35 0.181944
4 *30:32 *30:35 1.25986
5 *30:27 *30:32 1.24692
6 *551:CP *30:27 6.98356
7 *30:32 *30:40 6.98356
8 *30:37 *30:40 10.5989838
9 *30:37 *30:13 0.525453
10 *30:39 *30:13 5.29351
11 *30:39 *30:31 9.89304256
12 *547:CP *30:31 6.98356
13 *30:39 *30:26 7.3992
14 *30:22 *30:26 1.24692
15 *549:CP *30:22 6.98356
16 *30:26 *30:10 1.58089
17 *30:19 *30:10 2.99115
18 *550:CP *30:19 6.98356
19 *30:37 *30:11 8.56445
20 *30:25 *30:11 1.32859
21 *548:CP *30:25 6.98356
22 *30:40 *30:14 0.123236
23 *30:9 *30:14 5.62392
24 *30:9 *30:15 5.62392
25 *30:33 *30:15 9.2036
26 *30:24 *30:33 6.98356
27 *554:CP *30:24 6.98356
28 *30:24 *30:28 0.636398
29 *30:17 *30:28 0.181944
30 *30:17 *30:12 0.970366
31 *30:20 *30:12 1.32859
32 *553:CP *30:20 6.98356
33 *30:36 *30:33 7.19138
34 *30:36 *30:41 6.98356
35 *30:41 *30:16 2.04408
36 *30:38 *30:16 6.47671
37 *30:34 *30:38 6.98356
38 *30:34 *30:29 7.60702
39 *30:29 *30:18 7.19138
40 *422:Z *30:18 6.98356
41 *552:CP *30:30 6.98356
*END

*D_NET *31 0.0166158

*CONN
*I *558:CP I *C 491.765 135.7725 *L 0.00294 *D DFKCNQD1BWP7T
*I *423:Z O *C 490.28 140.56 *L 0 *D CKBD2BWP7T
*I *557:CP I *C 496.075 151.4525 *L 0.00294 *D DFKCNQD1BWP7T
*I *556:CP I *C 450.715 155.4275 *L 0.00294 *D DFKCNQD1BWP7T
*I *555:CP I *C 427.925 159.2925 *L 0.00294 *D DFKCNQD1BWP7T
*I *534:CP I *C 468.805 151.4525 *L 0.00294 *D DFKCNQD1BWP7T
*I *533:CP I *C 457.605 155.4275 *L 0.00294 *D DFKCNQD1BWP7T
*I *532:CP I *C 430.165 135.7725 *L 0.00294 *D DFKCNQD1BWP7T
*I *531:CP I *C 417.675 155.4275 *L 0.00294 *D DFKCNQD1BWP7T

*CAP
1 *31:9 0.000116672
2 *31:10 0.00150504
3 *31:11 0.000164138
4 *31:12 9.24036e-05
5 *31:13 0.000744255
6 *31:14 0.000447029
7 *31:15 0.00194904
8 *31:16 0.000789668
9 *31:17 0.000493305
10 *31:18 0.000985717
11 *31:19 0.000277538
12 *31:20 0.000197893
13 *31:21 0.000357599
14 *31:22 0.00138825
15 *31:23 0.000322922
16 *31:24 3.21197e-06
17 *31:25 0.000230816
18 *31:26 0.00018332
19 *31:27 0.000173952
20 *31:29 0.000526019
21 *31:30 0.000164435
22 *31:31 0.000874666
23 *31:32 0.000119616
24 *31:33 0.000263827
25 *31:26 *23:54 0.0009509
26 *31:20 *38:119 0.00053543
27 *31:9 *74:4 0.00080358
28 *31:9 *6:45 0.00134187
29 *31:24 *21:5 0.00061269

*RES
1 *533:CP *31:14 6.98339
2 *31:31 *31:14 8.23038
3 *31:31 *31:22 4.15642
4 *31:30 *31:22 6.98339
5 *534:CP *31:30 6.98339
6 *31:22 *31:17 5.911
7 *31:19 *31:17 1.98618
8 *31:19 *31:24 7.06507
9 *31:18 *31:24 3.86702
10 *31:25 *31:18 0.415662
11 *423:Z *31:25 6.98339
12 *31:33 *31:18 7.60698
13 *31:33 *31:29 8.85397
14 *558:CP *31:29 6.98339
15 *31:19 *31:26 9.0617
16 *557:CP *31:26 6.98339
17 *31:31 *31:20 1.18011
18 *31:23 *31:20 1.52159
19 *31:10 *31:23 7.48171
20 *31:32 *31:10 0.831323
21 *31:32 *31:11 1.41329
22 *31:16 *31:11 9.31106
23 *31:16 *31:28 1.25981
24 *31:12 *31:28 0.181889
25 *531:CP *31:12 6.98339
26 *31:32 *31:13 9.89303
27 *555:CP *31:13 6.98339
28 *31:10 *31:9 7.06507
29 *31:15 *31:9 12.9287167
30 *31:15 *31:27 7.19132
31 *532:CP *31:27 6.98339
32 *31:23 *31:21 8.23038
33 *556:CP *31:21 6.98339
*END

*D_NET *32 0.0205725

*CONN
*I *562:CP I *C 698.795 135.7725 *L 0.00294 *D DFKCNQD1BWP7T
*I *424:Z O *C 670.04 140.56 *L 0 *D CKBD2BWP7T
*I *561:CP I *C 689.275 139.7475 *L 0.00294 *D DFKCNQD1BWP7T
*I *560:CP I *C 639.995 135.7725 *L 0.00294 *D DFKCNQD1BWP7T
*I *559:CP I *C 639.995 151.4525 *L 0.00294 *D DFKCNQD1BWP7T
*I *538:CP I *C 670.235 147.5875 *L 0.00294 *D DFKCNQD1BWP7T
*I *537:CP I *C 661.275 131.9075 *L 0.00294 *D DFKCNQD1BWP7T
*I *536:CP I *C 595.925 155.4275 *L 0.00294 *D DFKCNQD1BWP7T
*I *535:CP I *C 580.635 147.5875 *L 0.00294 *D DFKCNQD1BWP7T

*CAP
1 *32:9 0.000898884
2 *32:10 0.000431963
3 *32:11 0.000110846
4 *32:12 0.0013698
5 *32:13 9.12666e-05
6 *32:14 0.000169203
7 *32:15 0.000138375
8 *32:16 0.000447967
9 *32:17 0.000548988
10 *32:19 1.12131e-05
11 *32:21 0.000535935
12 *32:22 3.81869e-06
13 *32:23 0.000141882
14 *32:24 0.000111506
15 *32:25 0.000732633
16 *32:26 0.00227507
17 *32:27 0.000223428
18 *32:29 0.000282965
19 *32:30 0.00193469
20 *32:31 0.000255262
21 *32:32 7.8665e-05
22 *32:33 0.000186769
23 *32:34 0.00165648
24 *32:35 0.000480426
25 *32:36 0.000526562
26 *32:37 0.00099876
27 *32:38 0.000898398
28 *32:12 *23:63 0.00115899
29 *32:9 *35:11 0.00248192
30 *32:23 *63:5 0.00066101
31 *32:14 *91:4 0.00072874

*RES
1 *559:CP *32:19 6.98342
2 *32:19 *32:11 0.0816568
3 *32:31 *32:11 7.52532
4 *32:31 *32:37 6.98342
5 *32:37 *32:30 10.5165
6 *32:30 *32:35 7.89727
7 *32:35 *32:14 2.1139
8 *32:32 *32:14 0.990626
9 *32:32 *32:34 0.207854
10 *32:34 *32:36 7.2868
11 *32:36 *32:15 2.97032
12 *32:22 *32:15 7.54603
13 *32:17 *32:22 1.87049
14 *562:CP *32:17 6.98342
15 *32:36 *32:29 7.60698
16 *561:CP *32:29 6.98342
17 *32:32 *32:25 7.17838
18 *32:24 *32:25 0.207854
19 *424:Z *32:24 6.98342
20 *32:25 *32:28 2.49385
21 *538:CP *32:28 6.98342
22 *32:35 *32:38 6.98342
23 *32:38 *32:33 10.1008
24 *32:33 *32:27 7.19127
25 *537:CP *32:27 6.98342
26 *32:30 *32:21 8.64605
27 *560:CP *32:21 6.98342
28 *32:31 *32:13 1.23657
29 *32:9 *32:13 5.62377
30 *32:9 *32:12 5.62377
31 *32:26 *32:12 3.72593
32 *32:23 *32:26 6.98342
33 *32:23 *32:10 0.541904
34 *32:18 *32:10 1.32858
35 *536:CP *32:18 6.98342
36 *32:26 *32:20 12.8025379
37 *32:16 *32:20 1.03907
38 *535:CP *32:16 6.98342
*END

*D_NET *33 0.0443199

*CONN
*I *428:I I *C 357.56 147.84 *L 0.00464 *D CKBD2BWP7T
*I *427:I I *C 326.76 148.4 *L 0.00728 *D CKBD3BWP7T
*I *426:I I *C 615.72 147.84 *L 0.00464 *D CKBD2BWP7T
*I *425:I I *C 567 151.2 *L 0.00464 *D CKBD2BWP7T
*I *432:Q O *C 596.12 148.4 *L 0 *D CKLNQD4BWP7T

*CAP
1 *33:5 0.00207159
2 *33:6 0.00220216
3 *33:7 0.00213284
4 *33:8 0.00214043
5 *33:9 0.00217303
6 *33:10 0.00212547
7 *33:11 0.000162376
8 *33:12 0.0034516
9 *33:13 0.00211583
10 *33:14 0.00222027
11 *33:15 0.00222407
12 *33:16 0.00210293
13 *33:17 0.00224519
14 *33:18 0.00215312
15 *33:19 0.00302404
16 *33:20 0.00279446
17 *33:21 0.00118277
18 *33:22 0.00123533
19 *33:23 0.000247592
20 *33:24 0.000112341
21 *33:25 0.000427191
22 *33:26 0.000247487
23 *33:27 0.000861333
24 *33:28 0.000234057
25 *33:29 0.000103124
26 *33:30 8.05294e-05
27 *33:31 0.00126935
28 *33:32 1.65904e-05
29 *33:33 0.000406966
30 *33:34 0.000148524
31 *33:35 0.0014706
32 *33:36 6.96272e-05
33 *33:37 0.000867127

*RES
1 *33:36 *33:21 1.76508
2 *33:35 *33:21 8.83768272
3 *33:32 *33:35 6.98346
4 *33:29 *33:32 0.110444
5 *33:29 *33:20 3.74795
6 *33:31 *33:20 1.63374
7 *33:37 *33:31 7.90113
8 *33:34 *33:37 6.98346
9 *33:28 *33:34 6.98346
10 *33:28 *33:11 7.19127
11 *33:11 *425:I 0.252983
12 *33:31 *33:19 3.97248
13 *33:10 *33:19 2.81194
14 *33:10 *33:18 2.81194
15 *33:9 *33:18 2.81194
16 *33:9 *33:17 2.81194
17 *33:8 *33:17 2.81194
18 *33:8 *33:16 2.81194
19 *33:7 *33:16 2.81194
20 *33:7 *33:15 2.81194
21 *33:6 *33:15 2.81194
22 *33:6 *33:14 2.81194
23 *33:5 *33:14 2.81194
24 *33:5 *33:13 2.81194
25 *33:27 *33:13 1.12979
26 *33:27 *33:12 4.47642
27 *33:22 *33:12 8.20455
28 *33:22 *33:24 0.294113
29 *427:I *33:24 6.98346
30 *33:27 *33:25 7.27758
31 *428:I *33:25 6.98346
32 *33:32 *33:26 7.06977
33 *432:Q *33:26 6.98346
34 *33:33 *33:36 6.98346
35 *33:33 *33:30 7.27758
36 *33:30 *33:23 7.06977
37 *426:I *33:23 6.98346
*END

*D_NET *34 0.024397

*CONN
*I *576:CP I *C 569.605 135.7725 *L 0.00294 *D DFKCNQD1BWP7T
*I *425:Z O *C 569.24 150.64 *L 0 *D CKBD2BWP7T
*I *575:CP I *C 570.165 143.6125 *L 0.00294 *D DFKCNQD1BWP7T
*I *574:CP I *C 420.475 139.7475 *L 0.00294 *D DFKCNQD1BWP7T
*I *573:CP I *C 416.555 159.2925 *L 0.00294 *D DFKCNQD1BWP7T
*I *572:CP I *C 378.085 159.2925 *L 0.00294 *D DFKCNQD1BWP7T

*CAP
1 *34:6 0.00127864
2 *34:7 0.0013703
3 *34:8 0.00146952
4 *34:9 0.00236025
5 *34:10 0.00155513
6 *34:11 0.00145062
7 *34:12 0.000118382
8 *34:13 6.87528e-05
9 *34:14 7.56317e-07
10 *34:15 0.0018546
11 *34:16 0.00147017
12 *34:17 0.00162907
13 *34:18 0.00155758
14 *34:19 0.000186054
15 *34:20 0.00147928
16 *34:22 0.000143916
17 *34:23 0.0012239
18 *34:24 0.000221241
19 *34:25 0.000209716
20 *34:26 1.26053e-06
21 *34:27 0.00089105
22 *34:28 0.00067676
23 *34:29 6.17659e-05
24 *34:30 0.000144096
25 *34:31 0.000454403
26 *34:32 6.33866e-06
27 *34:33 0.00022052
28 *34:34 0.000136569
29 *34:35 0.000945505
30 *34:6 *25:3 0.00030856
31 *34:10 *38:79 0.00090232

*RES
1 *34:33 *34:32 7.39902
2 *575:CP *34:32 6.98349
3 *34:30 *34:32 0.220762
4 *34:29 *34:30 0.207762
5 *34:27 *34:29 2.68863
6 *576:CP *34:27 6.98349
7 *34:35 *34:33 9.47736
8 *34:34 *34:35 6.98349
9 *34:34 *34:25 7.19126
10 *425:Z *34:25 6.98349
11 *34:35 *34:14 0.333912
12 *34:12 *34:14 0.0816121
13 *34:9 *34:12 15.777379
14 *34:6 *34:9 5.62377
15 *34:6 *34:7 5.62377
16 *34:8 *34:7 5.62377
17 *34:8 *34:18 5.62377
18 *34:11 *34:18 5.62377
19 *34:11 *34:17 5.62377
20 *34:10 *34:17 5.62377
21 *34:10 *34:16 5.62377
22 *34:31 *34:16 1.49622
23 *34:28 *34:31 6.98349
24 *34:28 *34:13 0.0816121
25 *34:23 *34:13 11.2661
26 *34:23 *34:19 7.19126
27 *574:CP *34:19 6.98349
28 *34:28 *34:26 9.68512
29 *34:24 *34:26 1.45481
30 *34:24 *34:15 8.29651
31 *34:20 *34:15 12.8189
32 *34:20 *34:21 0.207762
33 *572:CP *34:21 6.98349
34 *34:24 *34:22 7.19126
35 *573:CP *34:22 6.98349
*END

*D_NET *35 0.0273835

*CONN
*I *586:CP I *C 668.555 163.2675 *L 0.00294 *D DFKCNQD1BWP7T
*I *426:Z O *C 613.48 148.4 *L 0 *D CKBD2BWP7T
*I *585:CP I *C 686.085 163.2675 *L 0.00294 *D DFKCNQD1BWP7T
*I *584:CP I *C 721.925 147.5875 *L 0.00294 *D DFKCNQD1BWP7T
*I *583:CP I *C 720.805 163.2675 *L 0.00294 *D DFKCNQD1BWP7T
*I *582:CP I *C 722.485 143.6125 *L 0.00294 *D DFKCNQD1BWP7T
*I *581:CP I *C 710.165 135.7725 *L 0.00294 *D DFKCNQD1BWP7T
*I *580:CP I *C 720.075 159.2925 *L 0.00294 *D DFKCNQD1BWP7T
*I *579:CP I *C 724.555 167.1325 *L 0.00294 *D DFKCNQD1BWP7T
*I *578:CP I *C 613.115 139.7475 *L 0.00294 *D DFKCNQD1BWP7T
*I *577:CP I *C 612.555 151.4525 *L 0.00294 *D DFKCNQD1BWP7T

*CAP
1 *35:11 0.000945394
2 *35:12 0.00250401
3 *35:13 0.000202088
4 *35:14 7.23798e-05
5 *35:15 5.60237e-05
6 *35:16 3.15167e-06
7 *35:17 0.000778735
8 *35:18 0.00188258
9 *35:19 0.00112645
10 *35:20 0.000725102
11 *35:21 0.000826771
12 *35:22 0.000253438
13 *35:23 0.000180406
14 *35:24 0.00152411
15 *35:25 0.000227573
16 *35:26 0.000302452
17 *35:27 0.000170842
18 *35:28 0.000162094
19 *35:29 6.66742e-05
20 *35:30 0.00075901
21 *35:31 0.000192959
22 *35:32 0.000361356
23 *35:33 0.000404121
24 *35:34 0.000342446
25 *35:35 0.000261915
26 *35:36 0.00166153
27 *35:37 0.000896597
28 *35:38 3.36903e-06
29 *35:40 0.000131447
30 *35:41 1.03244e-06
31 *35:42 0.000177472
32 *35:43 0.000278706
33 *35:44 0.00189894
34 *35:45 0.00356112
35 *35:14 *23:109 0.00195938
36 *35:11 *32:9 0.00248192

*RES
1 *577:CP *35:16 6.98345
2 *35:16 *35:15 0.0817284
3 *35:13 *35:15 0.749581
4 *35:12 *35:13 7.39919
5 *35:12 *35:11 8.53109
6 *35:24 *35:11 5.62385
7 *35:24 *35:25 5.62385
8 *35:22 *35:25 0.587856
9 *35:17 *35:22 7.7332
10 *35:36 *35:17 9.97467
11 *35:36 *35:20 6.6503
12 *35:20 *35:19 4.00954
13 *35:21 *35:19 4.9269
14 *35:21 *35:14 3.53302
15 *35:28 *35:14 6.98345
16 *580:CP *35:28 6.98345
17 *35:14 *35:43 0.415568
18 *35:43 *35:37 8.2305
19 *35:37 *35:39 2.9095
20 *579:CP *35:39 6.98345
21 *35:43 *35:33 8.2305
22 *583:CP *35:33 6.98345
23 *35:21 *35:18 9.97467
24 *35:45 *35:18 2.20441
25 *35:44 *35:45 6.98345
26 *35:44 *35:35 11.3477755
27 *35:31 *35:35 0.428554
28 *35:31 *35:41 0.181984
29 *35:40 *35:41 0.22077
30 *582:CP *35:40 6.98345
31 *35:35 *35:38 0.623525
32 *584:CP *35:38 6.98345
33 *35:45 *35:42 10.7243
34 *35:42 *35:23 7.19123
35 *581:CP *35:23 6.98345
36 *35:20 *35:32 8.2305
37 *585:CP *35:32 6.98345
38 *35:36 *35:26 8.2305
39 *586:CP *35:26 6.98345
40 *35:12 *35:34 7.60697
41 *426:Z *35:34 6.98345
42 *35:30 *35:34 2.7147
43 *35:29 *35:30 0.207784
44 *35:27 *35:29 0.402755
45 *578:CP *35:27 6.98345
*END

*D_NET *36 0.0336176

*CONN
*I *590:CP I *C 186.395 143.6125 *L 0.00294 *D DFKCNQD1BWP7T
*I *427:Z O *C 324.52 146.72 *L 0 *D CKBD3BWP7T
*I *589:CP I *C 186.955 155.4275 *L 0.00294 *D DFKCNQD1BWP7T
*I *588:CP I *C 198.155 135.7725 *L 0.00294 *D DFKCNQD1BWP7T
*I *587:CP I *C 198.155 151.4525 *L 0.00294 *D DFKCNQD1BWP7T
*I *568:CP I *C 203.365 147.5875 *L 0.00294 *D DFKCNQD1BWP7T
*I *567:CP I *C 203.365 131.9075 *L 0.00294 *D DFKCNQD1BWP7T
*I *566:CP I *C 171.275 131.9075 *L 0.00294 *D DFKCNQD1BWP7T
*I *565:CP I *C 169.595 155.4275 *L 0.00294 *D DFKCNQD1BWP7T
*I *564:CP I *C 158.955 159.2925 *L 0.00294 *D DFKCNQD1BWP7T
*I *563:CP I *C 157.835 131.9075 *L 0.00294 *D DFKCNQD1BWP7T

*CAP
1 *36:11 0.000965393
2 *36:12 0.00105736
3 *36:13 0.00127978
4 *36:14 0.0013124
5 *36:15 0.000966269
6 *36:16 0.00097454
7 *36:17 0.000205518
8 *36:18 0.00128482
9 *36:19 0.000222581
10 *36:20 0.000961285
11 *36:21 0.000393563
12 *36:22 0.000120232
13 *36:23 0.000204313
14 *36:26 0.000125655
15 *36:29 8.545e-06
16 *36:30 0.000171639
17 *36:31 0.000323861
18 *36:32 0.000162382
19 *36:33 0.00012686
20 *36:34 0.000401423
21 *36:37 0.00163475
22 *36:38 0.000419006
23 *36:39 0.00179486
24 *36:40 0.000677629
25 *36:41 0.000125874
26 *36:42 0.00158666
27 *36:43 0.000137514
28 *36:45 0.000219431
29 *36:46 0.00155125
30 *36:47 0.000658841
31 *36:14 *38:92 0.00241465
32 *36:20 *80:4 0.00103264
33 *36:11 *30:9 0.00057989
34 *36:12 *30:9 0.00032956
35 *36:13 *30:9 0.00045497
36 *36:14 *30:13 0.0002937
37 *36:15 *30:13 9.542e-05
38 *36:16 *30:14 1.6e-06
39 *36:11 *30:14 0.0003681
40 *36:12 *30:14 0.00074045
41 *36:11 *30:15 0.0004228
42 *36:13 *30:15 0.00107781
43 *36:17 *30:15 0.00045193
44 *36:13 *30:33 0.00041251
45 *36:17 *30:33 2.328e-05
46 *36:16 *30:37 0.00082172
47 *36:15 *30:37 0.00091956
48 *36:12 *30:37 0.00032124
49 *36:14 *30:39 0.00070889
50 *36:18 *30:39 4.24e-06
51 *36:15 *30:39 0.00035107
52 *36:16 *30:40 0.00065242
53 *36:12 *30:40 2.69200705e-05
54 *36:14 *81:4 0.00103795

*RES
1 *36:41 *36:42 0.207885
2 *36:45 *36:42 9.06164
3 *36:45 *36:20 5.97948
4 *36:37 *36:20 3.99614
5 *36:37 *36:27 11.9711
6 *36:23 *36:27 0.207885
7 *563:CP *36:23 6.98345
8 *36:37 *36:30 7.19133
9 *566:CP *36:30 6.98345
10 *36:45 *36:38 8.4382
11 *588:CP *36:38 6.98345
12 *36:42 *36:43 5.40347
13 *36:43 *36:47 6.98345
14 *36:46 *36:47 2.07819
15 *36:40 *36:46 6.98345
16 *36:40 *36:22 1.78875
17 *36:36 *36:22 0.0815585
18 *587:CP *36:36 6.98345
19 *36:46 *36:34 11.3477
20 *36:31 *36:34 1.03921
21 *590:CP *36:31 6.98345
22 *36:34 *36:19 1.78875
23 *36:26 *36:19 1.10791
24 *36:26 *36:33 0.181955
25 *36:33 *36:35 0.22074
26 *589:CP *36:35 6.98345
27 *36:26 *36:29 0.428625
28 *36:29 *36:21 8.59866
29 *36:39 *36:21 4.61958
30 *36:39 *36:32 7.19133
31 *565:CP *36:32 6.98345
32 *36:39 *36:25 10.9322
33 *36:25 *36:28 1.45476
34 *564:CP *36:28 6.98345
35 *36:47 *36:18 3.19009
36 *36:14 *36:18 5.62377
37 *36:14 *36:15 5.62377
38 *36:16 *36:15 5.62377
39 *36:16 *36:12 5.62377
40 *36:11 *36:12 5.62377
41 *36:11 *36:13 5.62377
42 *36:17 *36:13 14.5245018
43 *36:17 *36:24 0.207885
44 *427:Z *36:24 6.98345
45 *36:43 *36:44 0.207885
46 *568:CP *36:44 6.98345
47 *567:CP *36:41 6.98345
*END

*D_NET *37 0.0268598

*CONN
*I *594:CP I *C 356.635 143.6125 *L 0.00294 *D DFKCNQD1BWP7T
*I *428:Z O *C 355.32 148.4 *L 0 *D CKBD2BWP7T
*I *593:CP I *C 300.245 147.5875 *L 0.00294 *D DFKCNQD1BWP7T
*I *592:CP I *C 241.445 159.2925 *L 0.00294 *D DFKCNQD1BWP7T
*I *591:CP I *C 233.605 131.9075 *L 0.00294 *D DFKCNQD1BWP7T
*I *571:CP I *C 352.325 139.7475 *L 0.00294 *D DFKCNQD1BWP7T
*I *570:CP I *C 304.555 151.4525 *L 0.00294 *D DFKCNQD1BWP7T
*I *569:CP I *C 275.045 155.4275 *L 0.00294 *D DFKCNQD1BWP7T

*CAP
1 *37:8 5.08363e-05
2 *37:9 0.00210592
3 *37:10 0.000100267
4 *37:11 0.000910737
5 *37:12 0.00046134
6 *37:13 0.00108688
7 *37:14 0.000783119
8 *37:15 0.001038
9 *37:16 7.24655e-05
10 *37:17 0.00192576
11 *37:18 0.000570139
12 *37:20 0.000228638
13 *37:21 0.0032888
14 *37:22 9.18867e-05
15 *37:23 0.000418483
16 *37:25 0.0016523
17 *37:26 0.000100568
18 *37:27 0.000217196
19 *37:28 6.67947e-05
20 *37:29 4.76747e-06
21 *37:30 0.000220859
22 *37:31 0.000206256
23 *37:32 0.000204098
24 *37:34 0.00122333
25 *37:35 3.31214e-05
26 *37:36 0.000142623
27 *37:38 0.000269588
28 *37:39 5.06857e-05
29 *37:8 *30:9 6.312e-05
30 *37:9 *30:9 0.00065107
31 *37:10 *30:9 0.00068981
32 *37:11 *30:11 5.077e-05
33 *37:12 *30:11 1.259e-05
34 *37:13 *30:13 9.155e-05
35 *37:14 *30:13 0.00025838
36 *37:12 *30:13 4.296e-05
37 *37:15 *30:14 2.2e-06
38 *37:16 *30:14 0.00019527
39 *37:9 *30:14 0.00090884
40 *37:8 *30:15 7.806e-05
41 *37:17 *30:15 5.984e-05
42 *37:18 *30:15 0.00012711
43 *37:19 *30:15 3.073e-05
44 *37:20 *30:15 4.36e-06
45 *37:9 *30:15 0.00022967
46 *37:10 *30:15 0.00012031
47 *37:21 *30:15 4.425e-05
48 *37:17 *30:16 0.00100878
49 *37:21 *30:16 0.00013794
50 *37:22 *30:16 0.00025778
51 *37:23 *30:21 2.445e-05
52 *37:24 *30:21 1.369e-05
53 *37:9 *30:21 4.5e-07
54 *37:9 *30:23 3.85e-06
55 *37:11 *30:25 1.068e-05
56 *37:22 *30:29 2.33e-06
57 *37:23 *30:30 4.41e-06
58 *37:23 *30:32 8.29e-06
59 *37:9 *30:32 2.228e-05
60 *37:22 *30:34 3.561e-05
61 *37:9 *30:35 1.107e-05
62 *37:17 *30:36 3.216e-05
63 *37:15 *30:37 0.00082087
64 *37:11 *30:37 6.47e-06
65 *37:13 *30:37 0.00095013
66 *37:16 *30:37 0.00031933
67 *37:12 *30:37 1.173e-05
68 *37:17 *30:38 0.00043511
69 *37:13 *30:39 1.192e-05
70 *37:14 *30:39 0.00022552
71 *37:12 *30:39 0.00022883
72 *37:25 *30:39 1.228e-05
73 *37:15 *30:40 0.00063636
74 *37:16 *30:40 2.692e-05
75 *37:17 *30:41 0.00028083
76 *37:21 *30:41 0.000133340066

*RES
1 *37:15 *37:13 5.62395
2 *37:12 *37:13 0.30575
3 *37:14 *37:12 2.90959
4 *37:14 *37:25 6.98356
5 *37:25 *37:32 12.8025
6 *37:32 *37:27 7.19124
7 *591:CP *37:27 6.98356
8 *37:12 *37:11 8.35655
9 *37:28 *37:11 2.99127
10 *592:CP *37:28 6.98356
11 *37:15 *37:16 5.62395
12 *37:9 *37:16 0.915865
13 *37:9 *37:10 9.35202
14 *37:10 *37:30 7.19124
15 *593:CP *37:30 6.98356
16 *37:10 *37:8 0.979784
17 *37:18 *37:8 0.475124
18 *37:18 *37:19 0.415589
19 *37:20 *37:19 7.19124
20 *37:20 *37:21 6.98356
21 *37:21 *37:17 10.357
22 *37:22 *37:17 15.122736
23 *37:39 *37:22 6.98356
24 *37:35 *37:39 6.98356
25 *428:Z *37:35 6.98356
26 *37:34 *37:35 1.46783
27 *37:38 *37:34 8.2174
28 *37:38 *37:33 8.02265
29 *37:31 *37:33 0.20791
30 *571:CP *37:31 6.98356
31 *37:34 *37:36 0.389745
32 *37:36 *37:37 0.220832
33 *594:CP *37:37 6.98356
34 *37:18 *37:26 8.35655
35 *37:29 *37:26 0.0816871
36 *570:CP *37:29 6.98356
37 *37:9 *37:23 8.35655
38 *37:24 *37:23 1.32869
39 *569:CP *37:24 6.98356
*END

*D_NET *38 0.06769

*CONN
*I *534:CN I *C 470.4075 151.4625 *L 0.00324 *D DFKCNQD1BWP7T
*I *533:CN I *C 459.2075 155.4175 *L 0.00324 *D DFKCNQD1BWP7T
*I *556:CN I *C 449.1125 155.4175 *L 0.00324 *D DFKCNQD1BWP7T
*I *555:CN I *C 429.5275 159.3025 *L 0.00324 *D DFKCNQD1BWP7T
*I *531:CN I *C 416.0725 155.4175 *L 0.00324 *D DFKCNQD1BWP7T
*I *573:CN I *C 414.9525 159.3025 *L 0.00324 *D DFKCNQD1BWP7T
*I *574:CN I *C 418.8725 139.7375 *L 0.00324 *D DFKCNQD1BWP7T
*I *572:CN I *C 379.6875 159.3025 *L 0.00324 *D DFKCNQD1BWP7T
*I *532:CN I *C 431.7675 135.7825 *L 0.00324 *D DFKCNQD1BWP7T
*I *554:CN I *C 329.2875 147.5775 *L 0.00324 *D DFKCNQD1BWP7T
*I *553:CN I *C 325.9125 155.4175 *L 0.00324 *D DFKCNQD1BWP7T
*I *594:CN I *C 355.0325 143.6225 *L 0.00324 *D DFKCNQD1BWP7T
*I *571:CN I *C 353.9275 139.7375 *L 0.00324 *D DFKCNQD1BWP7T
*I *570:CN I *C 302.9525 151.4625 *L 0.00324 *D DFKCNQD1BWP7T
*I *593:CN I *C 301.8475 147.5775 *L 0.00324 *D DFKCNQD1BWP7T
*I *569:CN I *C 276.6475 155.4175 *L 0.00324 *D DFKCNQD1BWP7T
*I *551:CN I *C 271.0325 143.6225 *L 0.00324 *D DFKCNQD1BWP7T
*I *552:CN I *C 270.4725 155.4175 *L 0.00324 *D DFKCNQD1BWP7T
*I *592:CN I *C 243.0475 159.3025 *L 0.00324 *D DFKCNQD1BWP7T
*I *548:CN I *C 242.4725 155.4175 *L 0.00324 *D DFKCNQD1BWP7T
*I *550:CN I *C 225.6725 159.3025 *L 0.00324 *D DFKCNQD1BWP7T
*I *549:CN I *C 225.6725 143.6225 *L 0.00324 *D DFKCNQD1BWP7T
*I *547:CN I *C 226.7925 139.7375 *L 0.00324 *D DFKCNQD1BWP7T
*I *591:CN I *C 235.2075 131.8975 *L 0.00324 *D DFKCNQD1BWP7T
*I *567:CN I *C 204.9675 131.8975 *L 0.00324 *D DFKCNQD1BWP7T
*I *588:CN I *C 196.5525 135.7825 *L 0.00324 *D DFKCNQD1BWP7T
*I *587:CN I *C 196.5525 151.4625 *L 0.00324 *D DFKCNQD1BWP7T
*I *589:CN I *C 185.3525 155.4175 *L 0.00324 *D DFKCNQD1BWP7T
*I *568:CN I *C 204.9675 147.5775 *L 0.00324 *D DFKCNQD1BWP7T
*I *590:CN I *C 184.7925 143.6225 *L 0.00324 *D DFKCNQD1BWP7T
*I *566:CN I *C 169.6725 131.8975 *L 0.00324 *D DFKCNQD1BWP7T
*I *565:CN I *C 167.9925 155.4175 *L 0.00324 *D DFKCNQD1BWP7T
*I *563:CN I *C 156.2325 131.8975 *L 0.00324 *D DFKCNQD1BWP7T
*I *564:CN I *C 157.3525 159.3025 *L 0.00324 *D DFKCNQD1BWP7T
*I *429:Z O *C 483.56 150.08 *L 0 *D BUFFD1BWP7T

*CAP
1 *533:CN 1.719e-05
2 *556:CN 1.719e-05
3 *531:CN 1.727e-05
4 *574:CN 1.727e-05
5 *554:CN 1.72663e-05
6 *553:CN 1.72307e-05
7 *571:CN 1.719e-05
8 *593:CN 1.66e-05
9 *569:CN 1.727e-05
10 *552:CN 1.75155e-05
11 *548:CN 1.72663e-05
12 *547:CN 1.752e-05
13 *591:CN 1.723e-05
14 *567:CN 1.727e-05
15 *589:CN 1.752e-05
16 *568:CN 1.723e-05
17 *566:CN 1.719e-05
18 *565:CN 1.719e-05
19 *563:CN 1.718e-05
20 *38:36 0.00055097
21 *38:37 0.00042463
22 *38:38 0.000338027
23 *38:39 0.000419801
24 *38:41 0.00032858
25 *38:42 6.682e-05
26 *38:43 0.000382634
27 *38:44 0.00034194
28 *38:45 0.000164866
29 *38:46 0.00040041
30 *38:47 0.00047441
31 *38:48 0.0011891
32 *38:49 0.00178675
33 *38:50 0.00126022
34 *38:51 0.00160481
35 *38:52 0.000940352
36 *38:53 0.00018541
37 *38:54 0.00012638
38 *38:55 0.00154833
39 *38:56 0.00051032
40 *38:57 0.00033428
41 *38:58 0.00047994
42 *38:59 3.733e-05
43 *38:60 0.000100892
44 *38:61 5.06239e-05
45 *38:62 4.61739e-05
46 *38:63 0.00023288
47 *38:64 0.00229246
48 *38:65 0.000167678
49 *38:67 0.00172613
50 *38:68 0.000358212
51 *38:69 0.000704036
52 *38:70 0.00021211
53 *38:71 0.00043362
54 *38:72 7.175e-05
55 *38:73 0.00029515
56 *38:74 0.00019772
57 *38:75 0.00054395
58 *38:76 0.00052002
59 *38:77 0.00016546
60 *38:78 0.00076954
61 *38:79 0.0009325
62 *38:80 0.0003399
63 *38:81 0.00078001
64 *38:82 0.000524609
65 *38:83 9.971e-05
66 *38:84 0.000295164
67 *38:85 9.698e-05
68 *38:86 0.00095484
69 *38:87 0.00059974
70 *38:88 0.00056009
71 *38:89 0.00198318
72 *38:90 0.00016398
73 *38:91 5.733e-05
74 *38:92 0.00047358
75 *38:93 0.00035157
76 *38:94 2e-06
77 *38:95 0.00042816
78 *38:96 0.00045717
79 *38:97 0.00088211
80 *38:98 0.00019146
81 *38:99 0.00057503
82 *38:101 0.00017709
83 *38:102 0.00031137
84 *38:103 0.00012067
85 *38:105 0.00010233
86 *38:106 0.00014761
87 *38:107 3.644e-05
88 *38:108 0.00010575
89 *38:109 0.00015356
90 *38:110 0.00093879
91 *38:111 0.00111869
92 *38:112 5.107e-05
93 *38:113 0.00075985
94 *38:114 0.00010225
95 *38:115 0.00016416
96 *38:116 0.00018801
97 *38:117 2.65e-06
98 *38:118 0.00047257
99 *38:119 0.00028305
100 *38:120 3.504e-05
101 *38:121 6.287e-05
102 *38:122 0.00018108
103 *38:123 0.00110299
104 *38:124 7.959e-05
105 *38:125 9.8115e-05
106 *38:126 9.638e-05
107 *38:127 0.00014793
108 *38:129 0.00021907
109 *38:130 0.00097561
110 *38:131 8.048e-05
111 *38:132 9.534e-05
112 *38:133 0.00050726
113 *38:134 0.00010099
114 *38:135 9.705e-05
115 *38:136 0.0001001
116 *38:137 0.00075164
117 *38:138 8.603e-05
118 *38:139 8.519e-05
119 *38:140 7.398e-05
120 *38:141 8.16676e-05
121 *38:142 7.981e-05
122 *38:143 1.56642e-06
123 *38:144 9.579e-05
124 *38:145 7.928e-05
125 *38:147 0.00051814
126 *38:148 3.32e-05
127 *38:149 0.000114562
128 *38:150 0.000373556
129 *38:151 8.455e-05
130 *38:152 8.639e-05
131 *38:153 0.00037055
132 *38:154 7.206e-05
133 *38:156 0.00023612
134 *38:157 0.00040053
135 *38:158 0.00010088
136 *38:159 0.00047808
137 *38:160 4.9e-06
138 *38:161 0.00031741
139 *38:162 8.243e-05
140 *38:163 8.224e-05
141 *38:164 3e-08
142 *38:165 7.1735e-05
143 *38:166 0.00020362
144 *38:167 0.00033474
145 *38:168 0.00015439
146 *38:169 0.00035923
147 *38:170 0.00052778
148 *38:171 7.963e-05
149 *38:172 0.00023891
150 *38:173 0.00021213
151 *38:175 0.000500793
152 *38:176 8.415e-05
153 *38:177 7.925e-05
154 *38:178 0.00076429
155 *38:180 0.00038055
156 *38:181 0.00039252
157 *38:182 0.00015006
158 *38:185 0.00043958
159 *38:187 0.00011818
160 *38:188 0.00147579
161 *38:189 0.00023488
162 *38:191 0.000614216
163 *38:192 0.0001224
164 *38:193 9.557e-05
165 *38:194 1.836e-05
166 *38:195 0.000406
167 *38:196 0.00066154
168 *38:197 0.00051773
169 *38:198 0.00024507
170 *38:199 5.194e-05
171 *38:200 0.00033727
172 *38:35 *30:10 0.00125692
173 *38:119 *31:20 0.00053543
174 *38:49 *6:32 6.3e-07
175 *38:50 *6:35 4.721e-05
176 *38:51 *6:35 5.582e-05
177 *38:52 *6:35 0.00011651
178 *38:35 *6:39 3.8e-07
179 *38:36 *6:39 4.49e-06
180 *38:53 *6:39 2.734e-05
181 *38:54 *6:39 3.32e-06
182 *38:37 *6:39 1.1e-06
183 *38:55 *6:39 3.2e-06
184 *38:49 *6:40 2.3e-06
185 *38:56 *6:46 1.886e-05
186 *38:57 *6:48 6.74e-06
187 *38:58 *6:48 9.56e-06
188 *38:59 *6:49 4.1e-07
189 *38:60 *6:49 3.01e-06
190 *38:61 *6:49 9.4e-07
191 *38:49 *6:49 9.7e-07
192 *38:62 *6:49 2.6e-07
193 *38:44 *6:52 3.674e-05
194 *38:63 *6:52 1.712e-05
195 *38:64 *6:52 2.96e-06
196 *38:65 *6:52 8.77e-06
197 *38:66 *6:53 5.6e-05
198 *38:67 *6:54 0.00012166
199 *38:38 *6:54 1.57e-05
200 *38:43 *6:54 2.19e-05
201 *38:68 *6:54 6.688e-05
202 *38:69 *6:55 3.404e-05
203 *38:50 *6:55 0.00012392
204 *38:52 *6:55 5.22e-05
205 *38:51 *6:56 0.0001107
206 *38:52 *6:56 6.564e-05
207 *38:70 *6:57 4.577e-05
208 *38:51 *6:57 7.2e-07
209 *38:71 *6:57 4.218e-05
210 *38:72 *6:57 2.4e-07
211 *38:73 *6:57 5.3e-06
212 *38:74 *6:57 3.313e-05
213 *38:75 *6:57 6.253e-05
214 *38:76 *6:57 1.466e-05
215 *38:77 *6:57 2.294e-05
216 *38:78 *6:64 1.488e-05
217 *38:69 *6:69 1.797e-05
218 *38:67 *6:69 1.445e-05
219 *38:51 *6:70 0.00011494
220 *38:77 *6:70 8.351e-05
221 *38:79 *6:71 5.1e-07
222 *38:80 *6:73 1.86e-06
223 *38:81 *6:73 4.6e-06
224 *38:82 *6:75 7.129e-05
225 *38:83 *6:75 6.1e-07
226 *38:66 *6:75 2.218e-05
227 *38:84 *6:75 3.942e-05
228 *38:85 *6:81 2.8e-06
229 *38:78 *6:81 1.972e-05
230 *38:53 *6:84 5.35e-06
231 *38:63 *6:86 9.4e-07
232 *38:64 *6:86 8.31e-06
233 *38:67 *6:88 1.754e-05
234 *38:86 *6:90 5.469e-05
235 *38:78 *6:95 0.00011848
236 *38:82 *6:99 2.931e-05
237 *38:69 *6:100 0.00011151
238 *38:87 *6:100 7.341e-05
239 *38:67 *6:100 8.149e-05
240 *38:50 *6:100 2.477e-05
241 *38:88 *6:102 8.327e-05
242 *38:80 *6:109 2.537e-05
243 *38:86 *6:109 0.00010373
244 *38:89 *6:112 0.00022979
245 *38:67 *6:112 2.645e-05
246 *38:43 *6:112 1.796e-05
247 *38:68 *6:112 0.00013369
248 *38:90 *6:116 9.92e-06
249 *38:86 *6:120 3.49e-06
250 *38:57 *6:123 2.623e-05
251 *38:91 *6:123 2.69e-06
252 *38:82 *6:124 3.64e-06
253 *38:90 *6:124 0.00012982
254 *38:41 *6:124 2.115e-05
255 *38:84 *6:124 4.555e-05
256 *38:92 *6:127 3.6e-06
257 *38:91 *6:127 3.66e-06
258 *38:79 *6:128 4.79e-06
259 *38:49 *6:134 2.317e-05
260 *38:62 *6:134 1.848e-05
261 *38:93 *6:136 2.292e-05
262 *38:94 *6:136 1.416e-05
263 *38:49 *6:138 1.206e-05
264 *38:62 *6:138 2.5e-07
265 *38:65 *6:138 2.173e-05
266 *38:88 *6:139 9.2e-07
267 *38:95 *6:143 4.19e-06
268 *38:96 *6:144 3.25e-06
269 *38:97 *6:145 4.6e-05
270 *38:98 *6:145 6.09e-06
271 *38:99 *6:145 3.5e-06
272 *38:100 *6:145 1.22e-06
273 *38:86 *6:145 2.7e-06
274 *38:101 *6:145 1.101e-05
275 *38:102 *6:145 3.893e-05
276 *38:103 *6:145 3.04e-06
277 *38:104 *6:145 1.75e-06
278 *38:71 *6:148 6.11e-06
279 *38:74 *6:148 3.635e-05
280 *38:76 *6:148 2.222e-05
281 *38:76 *6:151 7.74e-06
282 *38:79 *6:151 6.27e-06
283 *38:105 *6:151 7.249e-05
284 *38:95 *6:151 7.9e-05
285 *38:96 *6:152 2.14e-06
286 *38:106 *6:153 2.2e-06
287 *38:107 *6:153 6.37e-06
288 *38:108 *6:153 6.73e-06
289 *38:58 *6:153 3.556e-05
290 *38:76 *6:154 1.85e-06
291 *38:79 *6:154 5.863e-05
292 *38:109 *6:160 2.54e-06
293 *38:79 *6:160 6.115e-05
294 *38:95 *6:160 5.81e-06
295 *38:57 *6:161 1.805e-05
296 *38:92 *6:161 7.28e-06
297 *38:95 *6:163 6.558e-05
298 *38:110 *6:164 4.373e-05
299 *38:88 *6:164 7.6e-07
300 *38:81 *6:166 6.67e-06
301 *38:110 *6:169 1.899e-05
302 *38:96 *6:174 4.84e-06
303 *38:110 *6:174 3.84e-06
304 *38:111 *6:175 6.44e-06
305 *38:86 *6:176 2.879e-05
306 *38:59 *6:177 2.79e-06
307 *38:112 *6:177 8.61e-06
308 *38:54 *6:177 1.382e-05
309 *38:37 *6:177 2.396e-05
310 *38:55 *6:177 7.91e-06
311 *38:96 *6:179 4.98e-06
312 *38:110 *6:179 2.53e-06
313 *38:113 *6:180 1.555e-05
314 *38:114 *6:181 1.45e-06
315 *38:115 *6:181 1.906e-05
316 *38:86 *6:181 8.942e-05
317 *38:101 *6:181 7.73e-06
318 *38:59 *6:182 4.3e-07
319 *38:55 *6:182 1.573e-05
320 *38:96 *6:183 1.977e-05
321 *38:110 *6:183 5.72e-06
322 *38:88 *6:183 0.00010711
323 *38:116 *6:183 6.721e-05
324 *38:117 *6:183 1.362e-05
325 *38:102 *6:185 2.943e-05
326 *38:103 *6:185 1.345e-05
327 *38:104 *6:185 2.97e-06
328 *38:107 *6:185 1.026e-05
329 *38:108 *6:185 3.77e-06
330 *38:56 *6:186 3.86e-06
331 *38:118 *6:186 4.436e-05
332 *38:88 *6:186 1.959e-05
333 *38:116 *6:186 4.341e-05
334 *38:57 *6:188 1.858e-05
335 *38:58 *6:188 4.066e-05
336 *38:118 *6:190 2.92996409e-06
337 *38:79 *34:10 0.00090232
338 *38:178 *143:3 0.00035234
339 *38:92 *36:14 0.00241465

*RES
1 *38:194 *38:130 0.207875
2 *38:130 *38:128 3.80129
3 *38:164 *38:128 0.562979
4 *38:129 *38:164 0.233813
5 *38:129 *38:155 7.594
6 *38:127 *38:155 0.415567
7 *38:140 *38:127 6.98353
8 *589:CN *38:140 0.126588
9 *38:127 *38:80 1.53641
10 *38:81 *38:80 0.541789
11 *38:86 *38:81 11.1399
12 *38:115 *38:86 6.98353
13 *38:98 *38:115 0.831316
14 *38:101 *38:98 7.594
15 *38:101 *38:102 0.207875
16 *38:102 *38:104 1.87032
17 *38:103 *38:104 0.233813
18 *38:103 *38:107 0.610472
19 *38:106 *38:107 6.98353
20 *38:177 *38:106 6.98353
21 *568:CN *38:177 0.126588
22 *38:107 *38:108 0.610472
23 *38:108 *38:58 0.415567
24 *38:58 *38:57 2.16387
25 *38:91 *38:57 1.57696
26 *38:92 *38:91 0.233813
27 *38:92 *38:94 2.26014
28 *38:93 *38:94 0.233813
29 *38:93 *38:37 8.21744
30 *38:46 *38:37 1.66263
31 *38:135 *38:46 6.98353
32 *38:135 *549:CN 0.126588
33 *38:168 *38:46 0.220844
34 *38:168 *38:184 0.181936
35 *38:180 *38:184 1.05216
36 *38:178 *38:180 2.49395
37 *38:196 *38:178 10.1009
38 *38:189 *38:196 6.98353
39 *38:189 *38:163 7.3991
40 *591:CN *38:163 0.126588
41 *38:152 *38:180 6.98353
42 *547:CN *38:152 0.126588
43 *38:37 *38:35 1.37311
44 *38:112 *38:35 0.0686827
45 *38:112 *38:54 0.207875
46 *38:54 *38:174 0.441505
47 *38:36 *38:174 0.181936
48 *38:36 *38:53 1.46773
49 *38:53 *38:55 6.98353
50 *38:55 *38:59 6.12481
51 *38:60 *38:59 0.109783
52 *38:175 *38:60 6.98353
53 *38:175 *38:149 7.81485
54 *38:149 *592:CN 0.126588
55 *38:175 *38:141 7.3991
56 *548:CN *38:141 0.126588
57 *38:60 *38:61 0.610472
58 *38:61 *38:191 0.207875
59 *38:191 *38:62 2.0782
60 *38:49 *38:62 0.233813
61 *38:49 *38:65 7.46869
62 *38:65 *38:63 0.954434
63 *38:64 *38:63 1.33164
64 *38:156 *38:64 6.98353
65 *38:156 *38:142 7.3991
66 *569:CN *38:142 0.126588
67 *38:64 *38:89 9.97543
68 *38:66 *38:89 6.98353
69 *38:66 *38:82 1.95198
70 *38:84 *38:82 0.126223
71 *38:84 *38:83 6.98353
72 *570:CN *38:83 0.126588
73 *38:84 *38:146 7.81485
74 *38:41 *38:146 0.623441
75 *38:90 *38:41 6.98353
76 *38:90 *38:138 7.3991
77 *593:CN *38:138 0.126588
78 *38:68 *38:89 8.52067
79 *38:68 *38:67 2.66748
80 *38:69 *38:67 7.93139
81 *38:87 *38:69 8.93551
82 *38:48 *38:87 2.82786
83 *38:181 *38:48 6.98353
84 *38:181 *38:160 7.60697
85 *38:153 *38:160 0.636411
86 *38:153 *38:169 0.181936
87 *38:169 *38:139 7.82782
88 *571:CN *38:139 0.126588
89 *38:181 *38:172 6.99358
90 *594:CN *38:172 6.98353
91 *38:69 *38:50 3.31631
92 *38:52 *38:50 5.82798
93 *38:150 *38:52 6.98353
94 *38:150 *38:125 7.81485
95 *38:125 *572:CN 0.126588
96 *38:52 *38:51 5.41972
97 *38:77 *38:51 8.08885
98 *38:73 *38:77 6.98353
99 *38:73 *38:72 7.3991
100 *531:CN *38:72 0.126588
101 *38:73 *38:179 0.428536
102 *38:166 *38:179 0.181936
103 *38:166 *38:126 7.41207
104 *38:126 *573:CN 0.126588
105 *38:77 *38:186 8.23041
106 *38:75 *38:186 0.415567
107 *38:75 *38:70 1.53641
108 *38:123 *38:70 3.03574
109 *38:147 *38:123 6.98353
110 *38:147 *38:137 2.32754
111 *38:148 *38:137 3.2385
112 *38:148 *38:78 6.98353
113 *38:78 *38:85 9.89305
114 *38:85 *532:CN 0.126588
115 *38:123 *38:124 8.23041
116 *574:CN *38:124 0.126588
117 *38:75 *38:71 9.31107
118 *38:120 *38:71 2.22634
119 *38:120 *38:167 6.98353
120 *38:74 *38:167 7.594
121 *38:74 *38:76 0.207875
122 *38:76 *38:105 1.87032
123 *38:79 *38:105 0.233813
124 *38:79 *38:95 4.97474
125 *38:109 *38:95 6.98353
126 *38:162 *38:109 6.98353
127 *556:CN *38:162 0.126588
128 *38:95 *38:119 1.93718
129 *38:110 *38:119 1.59578
130 *38:121 *38:110 6.98353
131 *38:145 *38:121 6.98353
132 *533:CN *38:145 0.126588
133 *38:110 *38:88 4.1564
134 *38:88 *38:96 8.51994
135 *38:96 *38:122 7.10975
136 *38:122 *534:CN 0.126588
137 *38:88 *38:117 2.89655
138 *38:116 *38:117 0.233813
139 *38:116 *38:118 7.594
140 *38:118 *38:56 8.23041
141 *38:56 *429:Z 1.77095
142 *38:167 *38:144 8.23041
143 *38:144 *555:CN 0.126588
144 *38:68 *38:43 7.20419
145 *38:43 *38:143 7.17844
146 *553:CN *38:143 0.126588
147 *38:43 *38:40 1.01325
148 *38:40 *38:38 1.75725
149 *38:39 *38:38 8.35664
150 *554:CN *38:39 0.126588
151 *38:65 *38:45 7.3991
152 *38:165 *38:45 6.98353
153 *552:CN *38:165 0.126588
154 *38:45 *38:44 1.53641
155 *38:47 *38:44 1.38607
156 *38:47 *38:159 0.389811
157 *38:159 *38:136 8.65895
158 *38:136 *551:CN 0.126588
159 *38:53 *38:42 7.81485
160 *38:42 *550:CN 0.126588
161 *38:97 *38:98 2.92248
162 *38:97 *38:100 0.181936
163 *38:99 *38:100 1.6756
164 *38:158 *38:99 6.98353
165 *38:158 *588:CN 0.126588
166 *38:198 *38:99 7.594
167 *38:197 *38:198 0.233813
168 *38:197 *38:199 1.63669
169 *38:199 *38:200 0.207875
170 *38:200 *38:195 7.61994
171 *38:195 *38:171 8.23041
172 *567:CN *38:171 0.126588
173 *38:115 *38:114 7.3991
174 *38:114 *587:CN 0.126588
175 *38:81 *38:134 9.4773
176 *38:134 *590:CN 0.126588
177 *38:193 *38:194 0.610472
178 *38:192 *38:193 0.831316
179 *38:173 *38:192 6.98353
180 *38:173 *38:154 7.3991
181 *565:CN *38:154 0.126588
182 *38:187 *38:192 0.610472
183 *38:187 *38:190 0.233813
184 *38:185 *38:190 2.49395
185 *38:182 *38:185 0.207875
186 *38:182 *38:161 7.594
187 *38:161 *38:132 7.81485
188 *38:132 *564:CN 0.126588
189 *38:193 *38:133 8.93551
190 *38:111 *38:133 4.08772
191 *38:111 *38:183 0.181936
192 *38:113 *38:183 2.5197
193 *38:176 *38:113 0.207875
194 *38:170 *38:176 0.610472
195 *38:151 *38:170 6.98353
196 *566:CN *38:151 0.126588
197 *38:188 *38:170 8.02254
198 *38:188 *38:157 11.9712448
199 *38:157 *38:131 8.02254
200 *563:CN *38:131 0.126588
*END

*D_NET *39 0.0835901

*CONN
*P *39 I *C 999.88 0 *L 0
*I *431:CP I *C 722.9925 139.72 *L 0.0124 *D CKLNQD6BWP7T
*I *432:CP I *C 600.6 147.28 *L 0.0101 *D CKLNQD4BWP7T
*I *437:I I *C 558.6 155.12 *L 0.00422 *D CKBD1BWP7T

*CAP
1 *39 6.13122e-05
2 *39:4 0.00450459
3 *39:5 0.00201732
4 *39:6 0.00207327
5 *39:7 0.00203011
6 *39:8 0.00202365
7 *39:9 0.00206599
8 *39:10 0.00204434
9 *39:11 0.00202365
10 *39:12 0.00208063
11 *39:13 0.00201574
12 *39:14 0.00201574
13 *39:15 0.00202811
14 *39:16 0.00217596
15 *39:17 0.00218957
16 *39:18 0.00217638
17 *39:19 0.000306698
18 *39:20 0.00211417
19 *39:21 0.00201574
20 *39:22 0.00202976
21 *39:23 0.00270275
22 *39:24 0.000515792
23 *39:25 0.00205533
24 *39:26 0.00203011
25 *39:27 0.00202365
26 *39:28 0.00207499
27 *39:29 0.00203011
28 *39:30 0.00202365
29 *39:31 0.00208874
30 *39:32 0.00202399
31 *39:33 0.00376843
32 *39:34 0.00215713
33 *39:35 0.0021473
34 *39:36 0.00219927
35 *39:37 0.00372602
36 *39:38 0.00308706
37 *39:39 6.77733e-05
38 *39:40 4.49531e-05
39 *39:41 0.000192047
40 *39:42 0.00253043
41 *39:43 9.89793e-05
42 *39:44 0.00014785
43 *39:46 3.2237e-05
44 *39:47 0.00132186
45 *39:48 0.000742207
46 *39:49 0.000250404
47 *39:50 0.000128673
48 *39:51 0.00026745
49 *39:52 0.00111819

*RES
1 *39 *39:39 0.0616815
2 *39:50 *39:39 7.09394
3 *39:43 *39:50 0.28591
4 *39:43 *39:46 0.103865
5 *39:46 *39:33 5.27236
6 *39:12 *39:33 2.81185
7 *39:12 *39:32 2.81185
8 *39:11 *39:32 2.81185
9 *39:11 *39:31 2.81185
10 *39:10 *39:31 2.81185
11 *39:10 *39:30 2.81185
12 *39:9 *39:30 2.81185
13 *39:9 *39:29 2.81185
14 *39:8 *39:29 2.81185
15 *39:8 *39:28 2.81185
16 *39:7 *39:28 2.81185
17 *39:7 *39:27 2.81185
18 *39:6 *39:27 2.81185
19 *39:6 *39:26 2.81185
20 *39:5 *39:26 2.81185
21 *39:5 *39:25 2.81185
22 *39:4 *39:25 0.761551
23 *39:20 *39:4 12.2868061
24 *39:13 *39:20 2.81185
25 *39:13 *39:21 2.81185
26 *39:14 *39:21 2.81185
27 *39:14 *39:22 2.81185
28 *39:15 *39:22 2.81185
29 *39:15 *39:23 2.81185
30 *39:52 *39:23 3.3698
31 *39:49 *39:52 6.98351
32 *39:49 *39:41 7.1738
33 *39:41 *39:45 0.00993653
34 *431:CP *39:45 6.98351
35 *39:52 *39:51 8.42074
36 *39:51 *39:37 4.84453
37 *39:18 *39:37 2.81185
38 *39:18 *39:36 2.81185
39 *39:17 *39:36 2.81185
40 *39:17 *39:35 2.81185
41 *39:16 *39:35 2.81185
42 *39:16 *39:34 2.81185
43 *39:48 *39:34 0.919036
44 *39:40 *39:48 6.98351
45 *39:40 *39:44 0.00993653
46 *432:CP *39:44 6.98351
47 *39:47 *39:48 0.709806
48 *39:47 *39:24 7.76512
49 *39:24 *39:19 7.63895
50 *39:19 *39:38 3.9598
51 *39:42 *39:38 10.1759
52 *437:I *39:42 6.98351
*END

*D_NET *40 0.0659576

*CONN
*I *420:I I *C 803.85 132.16 *L 0.00543 *D BUFFD1P5BWP7T
*I *429:I I *C 484.68 151.2 *L 0.00303 *D BUFFD1BWP7T
*P *40 I *C 955.64 0 *L 0
*I *530:B1 I *C 615.16 159.04 *L 0.00244 *D IND2D0BWP7T
*I *501:B1 I *C 581.56 171.92 *L 0.00262 *D IND3D0BWP7T
*I *449:B1 I *C 573.16 171.92 *L 0.00262 *D IND3D0BWP7T

*CAP
1 *40 0.00197955
2 *40:6 0.00137585
3 *40:7 0.00223295
4 *40:8 0.000348086
5 *40:9 0.000416572
6 *40:10 0.000829123
7 *40:11 0.000829123
8 *40:12 0.00139947
9 *40:13 0.000855734
10 *40:14 0.00119472
11 *40:15 0.000965959
12 *40:16 9.57782e-05
13 *40:17 0.00102484
14 *40:18 0.0013381
15 *40:19 0.00128825
16 *40:20 0.00128825
17 *40:21 3.18238e-05
18 *40:22 0.00146086
19 *40:23 4.08531e-05
20 *40:24 5.50273e-05
21 *40:25 0.000851066
22 *40:26 0.000829123
23 *40:27 0.000635625
24 *40:28 6.18078e-05
25 *40:29 0.000479845
26 *40:30 0.000425158
27 *40:31 0.00089301
28 *40:32 0.00116215
29 *40:33 0.000927287
30 *40:34 0.000980236
31 *40:35 0.00126151
32 *40:36 0.00133582
33 *40:37 0.00133698
34 *40:38 0.00135187
35 *40:39 2.03754e-05
36 *40:40 0.00139391
37 *40:41 0.000549455
38 *40:42 2.11932e-05
39 *40:43 0.00100593
40 *40:44 0.000284234
41 *40:45 0.000123173
42 *40:46 0.00196449
43 *40:47 0.00186646
44 *40:48 1.5946e-05
45 *40:50 0.000125455
46 *40:51 0.000586015
47 *40:52 4.98142e-05
48 *40:53 6.48743e-05
49 *40:54 0.00149776
50 *40:55 0.000305632
51 *40:56 0.00135858
52 *40:57 0.000337796
53 *40:58 0.0015884
54 *40:59 0.000442161
55 *40:60 0.00205117
56 *40:61 0.00046332
57 *40:62 0.000235101
58 *40:63 0.000208661
59 *40:64 0.000146785
60 *40:66 0.000569183
61 *40:67 0.000624347
62 *40:68 0.000609151
63 *40:69 0.000102354
64 *40:70 1.23002e-05
65 *40:71 0.00021016
66 *40:72 0.000102354
67 *40:74 0.00022706
68 *40:76 5.48569e-06
69 *40:77 0.00215233
70 *40:78 0.000265596
71 *40:79 0.000122253
72 *40:80 0.00104586
73 *40:81 0.000120992
74 *40:10 *85:10 0.00253919
75 *40:6 *350:11 0.00106446
76 *40:12 *45:7 0.00203962
77 *40:12 *63:7 0.00022526
78 *40:12 *63:8 3.415e-05
79 *40:12 *63:9 6.15e-06
80 *40:12 *63:10 0.00023978
81 *40:12 *63:11 4.564e-05
82 *40:13 *63:12 0.00022629
83 *40:13 *63:8 7.03e-06
84 *40:13 *63:13 6.084e-05
85 *40:14 *63:14 0.00011374
86 *40:14 *63:13 0.00010247
87 *40:14 *63:15 0.00011646
88 *40:15 *63:16 0.00021683
89 *40:15 *63:15 0.00017994
90 *40:15 *63:17 8.045e-05
91 *40:16 *63:17 4.579e-05
92 *40:30 *63:7 2.111e-05
93 *40:30 *63:12 0.00013478
94 *40:30 *63:8 0.00033115
95 *40:30 *63:10 7.818e-05
96 *40:31 *63:12 6.363e-05
97 *40:31 *63:14 9.457e-05
98 *40:31 *63:13 0.00015247
99 *40:32 *63:14 0.00011136
100 *40:32 *63:16 0.00017994
101 *40:33 *63:16 6.711e-05
102 *40:33 *63:18 4.828e-05
103 *40:33 *63:17 0.00030549
104 *40:51 *63:7 6.77e-06
105 *40:52 *63:17 9.68e-06
106 *40:52 *63:19 1.167e-05
107 *40:61 *63:20 6.956e-05
108 *40:61 *63:19 1.093e-05
109 *40:61 *63:21 1.154e-05
110 *40:61 *63:22 5.603e-05
111 *40:68 *63:20 1.965e-05
112 *40:68 *63:21 5.498e-05
113 *40:80 *63:17 7.13003094e-06
114 *40:17 *65:3 0.00070844
115 *40:23 *281:4 0.00160037

*RES
1 *40 *40:25 11.0398
2 *40:10 *40:25 5.62395
3 *40:10 *40:26 5.62395
4 *40:11 *40:26 5.62395
5 *40:11 *40:27 5.62395
6 *40:50 *40:27 10.8564
7 *40:79 *40:50 7.61986
8 *40:66 *40:79 0.182004
9 *40:66 *40:73 4.77982
10 *40:73 *40:81 0.207907
11 *40:81 *40:59 7.61986
12 *40:59 *40:28 8.33129
13 *40:28 *40:21 7.09043
14 *40:21 *40:38 7.27017
15 *40:20 *40:38 6.8464
16 *40:20 *40:37 6.8464
17 *40:19 *40:37 6.8464
18 *40:19 *40:36 6.8464
19 *40:18 *40:36 6.8464
20 *40:18 *40:35 6.8464
21 *40:17 *40:35 6.8464
22 *40:17 *40:34 6.8464
23 *40:68 *40:34 3.21995
24 *40:68 *40:75 0.2788
25 *40:61 *40:75 2.783
26 *40:52 *40:61 0.252897
27 *40:16 *40:52 0.49307
28 *40:80 *40:16 10.9321
29 *420:I *40:80 6.98341
30 *40:16 *40:33 7.17087
31 *40:15 *40:33 6.8464
32 *40:15 *40:32 6.8464
33 *40:14 *40:32 6.8464
34 *40:14 *40:31 6.8464
35 *40:13 *40:31 6.8464
36 *40:13 *40:30 6.8464
37 *40:12 *40:30 9.68825
38 *40:51 *40:12 8.84095
39 *40:51 *40:67 0.207907
40 *40:67 *40:74 2.72756
41 *40:60 *40:74 0.182004
42 *40:60 *40:29 6.58169
43 *40:24 *40:29 2.36764
44 *40:43 *40:24 10.2956
45 *40:57 *40:43 0.116792
46 *40:57 *40:49 0.116792
47 *40:47 *40:49 10.599
48 *40:23 *40:47 0.207907
49 *40:23 *40:42 0.600091
50 *40:46 *40:42 14.891161
51 *40:46 *40:56 0.415587
52 *530:B1 *40:56 6.98341
53 *40:56 *40:65 4.77982
54 *40:78 *40:65 7.82777
55 *40:72 *40:78 0.415587
56 *40:72 *40:41 2.4958
57 *40:77 *40:41 9.12929
58 *40:71 *40:77 0.636446
59 *40:64 *40:71 0.415587
60 *40:64 *40:8 1.48194
61 *40:70 *40:8 0.362645
62 *40:70 *40:76 0.23381
63 *40:63 *40:76 0.610543
64 *40:63 *40:7 10.2486
65 *40:6 *40:7 5.62395
66 *40:6 *40:40 5.62395
67 *40:54 *40:40 5.62395
68 *40:54 *40:58 5.62395
69 *40:69 *40:58 7.07544
70 *40:62 *40:69 0.636446
71 *40:62 *40:48 0.0790729
72 *40:45 *40:48 0.102931
73 *40:22 *40:45 5.63713
74 *40:22 *40:39 0.102931
75 *40:53 *40:39 0.104976
76 *40:44 *40:53 0.610543
77 *429:I *40:44 6.98341
78 *40:63 *40:9 7.60691
79 *449:B1 *40:9 6.98341
80 *40:77 *40:55 7.39923
81 *501:B1 *40:55 6.98341
*END

*D_NET *41 0.0496776

*CONN
*P *41 I *C 911.4 0 *L 0
*I *528:A2 I *C 614.32 155.4 *L 0.00281 *D OR2D0BWP7T
*I *525:A2 I *C 773.08 132.16 *L 0.00317 *D CKAN2D1BWP7T
*I *521:A1 I *C 581.56 163.52 *L 0.00249 *D INR2D0BWP7T
*I *520:A1 I *C 574.84 163.52 *L 0.00249 *D INR2D0BWP7T

*CAP
1 *41 0.00173295
2 *41:5 0.000761969
3 *41:6 0.000761969
4 *41:7 0.00083555
5 *41:8 0.00177612
6 *41:9 0.00117397
7 *41:10 0.000994909
8 *41:11 0.00108334
9 *41:12 0.00122007
10 *41:13 0.000415228
11 *41:14 0.000959162
12 *41:15 0.00111153
13 *41:16 0.00103323
14 *41:17 0.00128826
15 *41:18 3.18176e-05
16 *41:19 0.000398939
17 *41:20 0.000129303
18 *41:21 0.000848532
19 *41:22 0.000761969
20 *41:23 0.000762863
21 *41:24 0.000256058
22 *41:25 0.00033899
23 *41:26 0.00093412
24 *41:27 0.00120072
25 *41:28 0.000592501
26 *41:29 0.00108416
27 *41:30 0.000889998
28 *41:31 0.00108971
29 *41:32 0.000766495
30 *41:33 0.00101843
31 *41:34 0.00133585
32 *41:35 0.000167462
33 *41:36 0.000169387
34 *41:37 0.000559897
35 *41:38 0.000946478
36 *41:39 0.000390727
37 *41:40 0.000678495
38 *41:41 0.00013475
39 *41:42 0.000501845
40 *41:43 0.000559789
41 *41:45 0.000158627
42 *41:46 7.77823e-05
43 *41:47 0.0006431
44 *41:48 0.00146331
45 *41:49 0.000238903
46 *41:50 3.01644e-05
47 *41:51 0.000728037
48 *41:52 5.51794e-05
49 *41:53 1.16538e-05
50 *41:54 0.00100851
51 *41:55 0.000125834
52 *41:56 0.000249283
53 *41:57 7.24704e-05
54 *41:58 0.000225867
55 *41:59 1.49331e-05
56 *41:60 0.00109982
57 *41:61 3.65333e-05
58 *41:62 5.25776e-06
59 *41:63 0.000165674
60 *41:5 *109:10 0.00118052
61 *41:8 *42:10 4.913e-05
62 *41:8 *42:11 2.032e-05
63 *41:8 *42:12 1.705e-05
64 *41:8 *42:13 6.67e-06
65 *41:10 *42:14 2.6e-06
66 *41:10 *42:15 4.458e-05
67 *41:10 *42:16 9.14e-06
68 *41:10 *42:17 6.236e-05
69 *41:11 *42:18 9.67e-06
70 *41:11 *42:15 3.452e-05
71 *41:11 *42:19 3.98e-06
72 *41:11 *42:20 1.174e-05
73 *41:14 *42:21 0.0001464
74 *41:14 *42:22 0.00023278
75 *41:14 *42:23 9.461e-05
76 *41:14 *42:24 1.1e-06
77 *41:15 *42:25 5.563e-05
78 *41:15 *42:23 6.571e-05
79 *41:15 *42:26 0.00016313
80 *41:16 *42:27 0.00014292
81 *41:16 *42:26 0.00018109
82 *41:25 *42:28 2.8e-05
83 *41:25 *42:29 1.63e-05
84 *41:28 *42:18 1.132e-05
85 *41:28 *42:15 0.00046468
86 *41:28 *42:16 0.00012261
87 *41:31 *42:30 5.114e-05
88 *41:31 *42:22 0.00020322
89 *41:32 *42:21 7.834e-05
90 *41:32 *42:25 8.86e-05
91 *41:32 *42:23 0.00016831
92 *41:33 *42:25 0.00012242
93 *41:33 *42:26 0.00020322
94 *41:38 *42:28 9.46e-06
95 *41:38 *42:29 2.9e-07
96 *41:40 *42:30 3.1e-06
97 *41:40 *42:22 5.114e-05
98 *41:40 *42:31 5.593e-05
99 *41:43 *42:11 1.795e-05
100 *41:43 *42:13 0.00010199
101 *41:43 *42:32 2.34e-06
102 *41:44 *42:30 5.593e-05
103 *41:47 *42:28 4.37e-06
104 *41:47 *42:29 9.756e-05
105 *41:47 *42:33 1.159e-05
106 *41:47 *42:34 6.65e-06
107 *41:49 *42:28 5.74e-06
108 *41:50 *42:29 2.836e-05
109 *41:50 *42:33 3e-06
110 *41:51 *42:35 4.696e-05
111 *41:54 *42:11 5.344e-05
112 *41:54 *42:32 1.009e-05
113 *41:54 *42:33 1.853e-05
114 *41:54 *42:34 1.007e-05
115 *41:57 *42:33 2.06699717e-05
116 *41:5 *86:11 0.00198635
117 *41:8 *44:8 0.00014506
118 *41:8 *44:9 0.00019145
119 *41:8 *44:10 0.00013566
120 *41:9 *44:11 0.00033357
121 *41:9 *44:9 2.893e-05
122 *41:9 *44:12 7.048e-05
123 *41:10 *44:13 0.00030994
124 *41:10 *44:12 9.998e-05
125 *41:10 *44:14 0.000132
126 *41:11 *44:15 0.00030881
127 *41:11 *44:14 1.194e-05
128 *41:11 *44:16 7.734e-05
129 *41:12 *44:17 0.00015603
130 *41:12 *44:18 0.00012047
131 *41:12 *44:19 4.194e-05
132 *41:13 *44:20 7.404e-05
133 *41:13 *44:18 5.838e-05
134 *41:26 *44:8 0.00020731
135 *41:26 *44:11 2.535e-05
136 *41:26 *44:9 0.00042414
137 *41:27 *44:11 7.471e-05
138 *41:27 *44:13 9.043e-05
139 *41:27 *44:12 0.00027701
140 *41:28 *44:13 4.741e-05
141 *41:28 *44:15 1.149e-05
142 *41:28 *44:14 0.00048194
143 *41:29 *44:15 9.165e-05
144 *41:29 *44:17 4.06e-06
145 *41:29 *44:16 0.00021453
146 *41:29 *44:19 7.629e-05
147 *41:30 *44:17 7.319e-05
148 *41:30 *44:18 0.00038407
149 *41:41 *44:21 1.535e-05
150 *41:43 *44:8 6.81e-06
151 *41:45 *44:22 8.24e-06
152 *41:48 *44:21 9.16e-06
153 *41:48 *44:22 2.669e-05
154 *41:51 *44:18 7.13e-06
155 *41:52 *44:21 3.87e-06
156 *41:52 *44:22 1.68700811e-05

*RES
1 *41 *41:21 11.0398655
2 *41:5 *41:21 5.62387
3 *41:5 *41:22 5.62387
4 *41:6 *41:22 5.62387
5 *41:6 *41:23 5.62387
6 *41:7 *41:23 5.62387
7 *41:7 *41:24 5.62387
8 *41:24 *41:18 8.12947
9 *41:18 *41:35 0.97586
10 *41:17 *41:35 6.84635
11 *41:17 *41:34 6.84635
12 *41:16 *41:34 6.84635
13 *41:16 *41:33 6.84635
14 *41:15 *41:33 6.84635
15 *41:15 *41:32 6.84635
16 *41:14 *41:32 6.84635
17 *41:14 *41:31 6.84635
18 *41:40 *41:31 3.94842
19 *41:40 *41:44 0.278961
20 *41:13 *41:44 2.77007
21 *41:51 *41:13 9.68515015
22 *525:A2 *41:51 6.98347
23 *41:13 *41:30 6.9486
24 *41:12 *41:30 6.84635
25 *41:12 *41:29 6.84635
26 *41:11 *41:29 6.84635
27 *41:11 *41:28 6.84635
28 *41:10 *41:28 6.84635
29 *41:10 *41:27 6.84635
30 *41:9 *41:27 6.84635
31 *41:9 *41:26 6.84635
32 *41:8 *41:26 9.6267
33 *41:43 *41:8 9.2566
34 *41:43 *41:54 0.103937
35 *41:54 *41:57 3.1432
36 *41:47 *41:57 0.103937
37 *41:47 *41:50 2.70168
38 *41:38 *41:50 0.389805
39 *41:38 *41:25 1.80179
40 *41:49 *41:25 1.3286
41 *41:20 *41:49 6.98347
42 *41:20 *528:A2 0.12651
43 *41:49 *41:53 0.636423
44 *41:42 *41:53 0.181931
45 *41:42 *41:46 1.66265
46 *41:46 *41:56 0.207873
47 *41:56 *41:59 0.636423
48 *41:63 *41:59 7.61989
49 *41:61 *41:63 0.207873
50 *41:61 *41:37 2.28796
51 *41:60 *41:37 3.71308
52 *41:60 *41:62 0.441521
53 *41:58 *41:62 0.623452
54 *41:55 *41:58 0.415578
55 *41:48 *41:55 5.58529
56 *41:48 *41:52 0.441521
57 *41:45 *41:52 0.610481
58 *41:41 *41:45 6.98347
59 *41:19 *41:41 6.98347
60 *41:19 *521:A1 1.77097
61 *41:45 *41:36 0.663544
62 *41:39 *41:36 7.35912
63 *520:A1 *41:39 6.98347
*END

*D_NET *42 0.0523872

*CONN
*I *417:I I *C 504.28 131.6 *L 0.00313 *D DEL0BWP7T
*I *418:I I *C 511.53 132.16 *L 0.00543 *D BUFFD1P5BWP7T
*I *419:I I *C 806.12 135.52 *L 0.0101 *D BUFFD4BWP7T
*P *42 I *C 866.6 0 *L 0
*I *530:A1 I *C 616.84 159.6 *L 0.00253 *D IND2D0BWP7T

*CAP
1 *42 0.00187772
2 *42:5 5.78656e-05
3 *42:6 0.000616
4 *42:7 0.000998607
5 *42:8 0.00193362
6 *42:9 0.000402035
7 *42:10 6.74509e-05
8 *42:11 0.000942575
9 *42:12 9.36335e-05
10 *42:13 0.000456009
11 *42:14 0.000154297
12 *42:15 0.00075727
13 *42:16 0.000527609
14 *42:19 0.000106918
15 *42:20 5.95382e-05
16 *42:21 0.000996806
17 *42:22 0.00115429
18 *42:23 0.00110002
19 *42:24 0.00100523
20 *42:25 0.000939069
21 *42:26 0.000875768
22 *42:28 0.000927554
23 *42:29 0.00116635
24 *42:30 0.000703264
25 *42:32 0.000667625
26 *42:33 0.000433268
27 *42:35 0.00167846
28 *42:36 0.000844824
29 *42:37 0.000844824
30 *42:38 0.000912404
31 *42:39 0.000866568
32 *42:40 0.001511
33 *42:41 0.00139669
34 *42:42 0.00116011
35 *42:43 0.000916778
36 *42:44 0.000844824
37 *42:45 0.000852769
38 *42:46 0.000410913
39 *42:47 0.00142702
40 *42:48 0.00138984
41 *42:49 0.00210796
42 *42:50 0.00108967
43 *42:51 0.000507827
44 *42:52 1.89454e-05
45 *42:54 1.14509e-05
46 *42:55 0.000618605
47 *42:56 0.000945277
48 *42:57 0.00177296
49 *42:58 3.67007e-05
50 *42:60 0.00125963
51 *42:61 9.68179e-06
52 *42:62 0.000659584
53 *42:63 0.000560707
54 *42:10 *41:8 4.913e-05
55 *42:11 *41:8 2.032e-05
56 *42:12 *41:8 1.705e-05
57 *42:13 *41:8 6.67e-06
58 *42:14 *41:10 2.6e-06
59 *42:15 *41:10 4.458e-05
60 *42:16 *41:10 9.14e-06
61 *42:17 *41:10 6.236e-05
62 *42:18 *41:11 9.67e-06
63 *42:15 *41:11 3.452e-05
64 *42:19 *41:11 3.98e-06
65 *42:20 *41:11 1.174e-05
66 *42:21 *41:14 0.0001464
67 *42:22 *41:14 0.00023278
68 *42:23 *41:14 9.461e-05
69 *42:24 *41:14 1.1e-06
70 *42:25 *41:15 5.563e-05
71 *42:23 *41:15 6.571e-05
72 *42:26 *41:15 0.00016313
73 *42:27 *41:16 0.00014292
74 *42:26 *41:16 0.00018109
75 *42:28 *41:25 2.8e-05
76 *42:29 *41:25 1.63e-05
77 *42:18 *41:28 1.132e-05
78 *42:15 *41:28 0.00046468
79 *42:16 *41:28 0.00012261
80 *42:30 *41:31 5.114e-05
81 *42:22 *41:31 0.00020322
82 *42:21 *41:32 7.834e-05
83 *42:25 *41:32 8.86e-05
84 *42:23 *41:32 0.00016831
85 *42:25 *41:33 0.00012242
86 *42:26 *41:33 0.00020322
87 *42:28 *41:38 9.46e-06
88 *42:29 *41:38 2.9e-07
89 *42:30 *41:40 3.1e-06
90 *42:22 *41:40 5.114e-05
91 *42:31 *41:40 5.593e-05
92 *42:11 *41:43 1.795e-05
93 *42:13 *41:43 0.00010199
94 *42:32 *41:43 2.34e-06
95 *42:30 *41:44 5.593e-05
96 *42:28 *41:47 4.37e-06
97 *42:29 *41:47 9.756e-05
98 *42:33 *41:47 1.159e-05
99 *42:34 *41:47 6.65e-06
100 *42:28 *41:49 5.74e-06
101 *42:29 *41:50 2.836e-05
102 *42:33 *41:50 3e-06
103 *42:35 *41:51 4.696e-05
104 *42:11 *41:54 5.344e-05
105 *42:32 *41:54 1.009e-05
106 *42:33 *41:54 1.853e-05
107 *42:34 *41:54 1.007e-05
108 *42:33 *41:57 2.06700201e-05
109 *42:42 *66:3 0.00087092
110 *42:18 *67:3 0.00053161
111 *42:36 *87:8 0.00240024
112 *42:5 *48:11 0.00089396
113 *42:25 *85:8 0.00048557

*RES
1 *42 *42:43 11.0398
2 *42:36 *42:43 5.62384
3 *42:36 *42:44 5.62384
4 *42:37 *42:44 5.62384
5 *42:37 *42:45 5.62384
6 *42:38 *42:45 5.62384
7 *42:38 *42:46 5.62384
8 *42:46 *42:27 8.75289
9 *42:27 *42:26 8.12136
10 *42:25 *42:26 6.84636
11 *42:25 *42:23 6.84636
12 *42:21 *42:23 5.51001
13 *42:24 *42:21 10.5164585
14 *419:I *42:24 6.98354
15 *42:21 *42:22 8.18288
16 *42:30 *42:22 3.69532
17 *42:30 *42:31 0.531847
18 *42:31 *42:35 9.97166
19 *42:42 *42:35 6.84636
20 *42:42 *42:50 6.84636
21 *42:60 *42:50 6.18977
22 *42:20 *42:60 0.253058
23 *42:19 *42:20 0.505945
24 *42:18 *42:19 0.253058
25 *42:18 *42:15 6.997
26 *42:16 *42:15 3.09719
27 *42:16 *42:17 0.27896
28 *42:14 *42:17 0.480043
29 *42:14 *42:53 0.27896
30 *42:53 *42:49 10.0637
31 *42:41 *42:49 6.84636
32 *42:41 *42:48 6.84636
33 *42:57 *42:48 8.37476
34 *42:12 *42:57 0.505945
35 *42:10 *42:12 0.492994
36 *42:13 *42:10 8.6331
37 *42:13 *42:32 0.207899
38 *42:32 *42:33 2.09126
39 *42:33 *42:34 1.68841
40 *42:29 *42:34 0.181827
41 *42:29 *42:28 4.08777
42 *42:54 *42:28 2.99119
43 *530:A1 *42:54 6.98354
44 *42:10 *42:11 4.82513
45 *42:6 *42:11 2.49905
46 *42:6 *42:52 0.27896
47 *42:52 *42:8 11.1679325
48 *42:9 *42:8 1.73511
49 *42:61 *42:9 0.253058
50 *42:56 *42:61 5.03406
51 *42:56 *42:59 0.27896
52 *42:51 *42:59 2.27701
53 *42:5 *42:51 0.253058
54 *42:5 *42:7 4.62064
55 *42:40 *42:7 6.84636
56 *42:40 *42:47 6.84636
57 *42:55 *42:47 1.64786
58 *42:55 *42:58 1.2779
59 *42:63 *42:58 8.23042
60 *418:I *42:63 6.98354
61 *42:39 *42:58 3.28907
62 *42:62 *42:39 8.02252
63 *417:I *42:62 6.98354
*END

*D_NET *43 0.036309

*CONN
*P *43 I *C 822.36 0 *L 0
*I *522:A1 I *C 574.84 155.68 *L 0.00283 *D CKAN2D1BWP7T
*I *519:A2 I *C 576.52 155.68 *L 0.00317 *D CKAN2D1BWP7T

*CAP
1 *43 0.00196062
2 *43:3 0.000878038
3 *43:4 0.000844827
4 *43:5 0.00011743
5 *43:6 0.00099476
6 *43:7 0.000913792
7 *43:9 0.000893163
8 *43:10 0.00107782
9 *43:11 0.000979957
10 *43:12 0.00121382
11 *43:13 0.000153634
12 *43:14 0.00151674
13 *43:15 0.000920775
14 *43:16 0.000844827
15 *43:17 0.00175025
16 *43:18 0.00156254
17 *43:19 0.000372918
18 *43:20 0.000979023
19 *43:21 0.00103718
20 *43:22 0.00158558
21 *43:23 0.000989289
22 *43:24 0.00107383
23 *43:25 0.0010244
24 *43:26 0.000925184
25 *43:27 0.000387014
26 *43:28 6.09194e-05
27 *43:29 0.000307783
28 *43:30 0.000612734
29 *43:31 0.000198946
30 *43:32 0.0001192
31 *43:33 0.00210901
32 *43:34 7.85227e-06
33 *43:9 *63:12 0.00024632
34 *43:9 *63:8 6.94e-06
35 *43:9 *63:13 6.965e-05
36 *43:10 *63:14 0.000121
37 *43:10 *63:13 0.00010757
38 *43:10 *63:15 0.00012595
39 *43:11 *63:16 0.00022547
40 *43:11 *63:15 0.00017994
41 *43:11 *63:17 7.348e-05
42 *43:12 *63:18 7.317e-05
43 *43:12 *63:17 5.602e-05
44 *43:14 *63:6 2.692e-05
45 *43:15 *63:23 4.696e-05
46 *43:23 *63:12 0.0001583
47 *43:23 *63:8 0.00036046
48 *43:23 *63:10 3.522e-05
49 *43:24 *63:12 6.363e-05
50 *43:24 *63:14 0.00011341
51 *43:24 *63:13 0.00015018
52 *43:25 *63:14 0.00011646
53 *43:25 *63:16 0.00020322
54 *43:26 *63:16 7.221e-05
55 *43:26 *63:18 4.12e-05
56 *43:26 *63:17 0.00030549
57 *43:30 *63:8 3.215e-05
58 *43:30 *63:10 4.662e-05
59 *43:30 *63:11 4.91500169e-05
60 *43:3 *111:12 0.0010711
61 *43:5 *46:3 0.00288229
62 *43:3 *88:4 0.00083465

*RES
1 *43 *43:15 11.0398
2 *43:3 *43:15 5.62393
3 *43:3 *43:16 5.62393
4 *43:4 *43:16 5.62393
5 *43:4 *43:17 5.62393
6 *43:17 *43:13 17.0911179
7 *43:13 *43:27 1.82709
8 *43:12 *43:27 6.84651
9 *43:12 *43:26 6.84651
10 *43:11 *43:26 6.84651
11 *43:11 *43:25 6.84651
12 *43:10 *43:25 6.84651
13 *43:10 *43:24 6.84651
14 *43:9 *43:24 6.84651
15 *43:9 *43:23 6.84651
16 *43:30 *43:23 3.37618
17 *43:8 *43:30 0.252966
18 *43:8 *43:22 10.3168
19 *43:7 *43:22 6.84651
20 *43:7 *43:21 6.84651
21 *43:6 *43:21 6.84651
22 *43:6 *43:20 6.84651
23 *43:33 *43:20 12.8721
24 *43:33 *43:35 0.278784
25 *43:5 *43:35 0.480114
26 *43:5 *43:29 0.266006
27 *43:29 *43:18 7.91575
28 *43:14 *43:18 5.62393
29 *43:14 *43:19 5.62393
30 *43:32 *43:19 1.31568
31 *43:32 *43:34 0.220889
32 *519:A2 *43:34 6.98343
33 *43:32 *43:28 0.234972
34 *43:31 *43:28 0.375537
35 *522:A1 *43:31 6.98343
*END

*D_NET *44 0.0388043

*CONN
*I *436:A1 I *C 569.8 155.68 *L 0.00484 *D AO22D1BWP7T
*P *44 I *C 778.12 0 *L 0
*I *523:I I *C 584.92 159.04 *L 0.00498 *D INVD1BWP7T
*I *522:A2 I *C 573.72 155.68 *L 0.00317 *D CKAN2D1BWP7T
*I *520:B1 I *C 577.08 162.96 *L 0.00247 *D INR2D0BWP7T

*CAP
1 *44 0.00216357
2 *44:5 0.000175436
3 *44:7 0.00131538
4 *44:8 0.00163482
5 *44:9 0.000521984
6 *44:10 2.70714e-06
7 *44:11 0.000787977
8 *44:12 0.000882925
9 *44:13 0.000746545
10 *44:14 0.000592667
11 *44:15 0.000877049
12 *44:16 0.000200395
13 *44:17 0.00181699
14 *44:18 0.00137087
15 *44:19 0.00014546
16 *44:20 6.25284e-05
17 *44:21 0.000460479
18 *44:22 0.00076051
19 *44:23 0.00101465
20 *44:24 0.00101465
21 *44:25 0.00123466
22 *44:26 0.00109491
23 *44:27 0.00101465
24 *44:28 0.00102261
25 *44:29 0.000163551
26 *44:30 0.000161702
27 *44:31 0.000586427
28 *44:32 0.000104423
29 *44:33 0.000509504
30 *44:34 0.0017989
31 *44:35 0.000277846
32 *44:36 0.00118471
33 *44:37 0.000381179
34 *44:40 0.000249619
35 *44:41 0.000146945
36 *44:42 0.000266258
37 *44:43 0.000528355
38 *44:44 3.96168e-07
39 *44:45 0.000731655
40 *44:8 *41:8 0.00014506
41 *44:9 *41:8 0.00019145
42 *44:10 *41:8 0.00013566
43 *44:11 *41:9 0.00033357
44 *44:9 *41:9 2.893e-05
45 *44:12 *41:9 7.048e-05
46 *44:13 *41:10 0.00030994
47 *44:12 *41:10 9.998e-05
48 *44:14 *41:10 0.000132
49 *44:15 *41:11 0.00030881
50 *44:14 *41:11 1.194e-05
51 *44:16 *41:11 7.734e-05
52 *44:17 *41:12 0.00015603
53 *44:18 *41:12 0.00012047
54 *44:19 *41:12 4.194e-05
55 *44:20 *41:13 7.404e-05
56 *44:18 *41:13 5.838e-05
57 *44:8 *41:26 0.00020731
58 *44:11 *41:26 2.535e-05
59 *44:9 *41:26 0.00042414
60 *44:11 *41:27 7.471e-05
61 *44:13 *41:27 9.043e-05
62 *44:12 *41:27 0.00027701
63 *44:13 *41:28 4.741e-05
64 *44:15 *41:28 1.149e-05
65 *44:14 *41:28 0.00048194
66 *44:15 *41:29 9.165e-05
67 *44:17 *41:29 4.06e-06
68 *44:16 *41:29 0.00021453
69 *44:19 *41:29 7.629e-05
70 *44:17 *41:30 7.319e-05
71 *44:18 *41:30 0.00038407
72 *44:21 *41:41 1.535e-05
73 *44:8 *41:43 6.81e-06
74 *44:22 *41:45 8.24e-06
75 *44:21 *41:48 9.16e-06
76 *44:22 *41:48 2.669e-05
77 *44:18 *41:51 7.13e-06
78 *44:21 *41:52 3.87e-06
79 *44:22 *41:52 1.6870014e-05
80 *44:5 *45:5 3.887e-05
81 *44:5 *45:14 4.61e-06
82 *44:6 *45:3 0.00014952
83 *44:8 *45:15 0.00027084
84 *44:8 *45:16 0.00010575
85 *44:11 *45:17 0.00033698
86 *44:11 *45:16 0.00010584
87 *44:11 *45:8 7.845e-05
88 *44:13 *45:7 0.00039033
89 *44:13 *45:8 0.00010706
90 *44:13 *45:9 5.116e-05
91 *44:15 *45:10 0.00031557
92 *44:15 *45:9 1.103e-05
93 *44:15 *45:11 9.165e-05
94 *44:17 *45:12 5.76e-06
95 *44:7 *45:3 0.00036432
96 *44:7 *45:5 0.00024072
97 *44:7 *45:18 3.053e-05
98 *44:7 *45:14 2.981e-05
99 *44:31 *45:3 2.928e-05
100 *44:31 *45:18 0.00015173
101 *44:9 *45:15 0.00018889
102 *44:9 *45:17 2.849e-05
103 *44:9 *45:16 0.00035123
104 *44:12 *45:17 6.821e-05
105 *44:12 *45:7 0.00010337
106 *44:12 *45:8 0.00026339
107 *44:14 *45:7 4.324e-05
108 *44:14 *45:10 1.152e-05
109 *44:14 *45:9 0.00046178
110 *44:16 *45:10 8.366e-05
111 *44:16 *45:12 1.145e-05
112 *44:16 *45:11 0.00018587
113 *44:33 *45:3 1.797e-05
114 *44:33 *45:18 4.158e-05
115 *44:10 *45:15 3.589e-05
116 *44:10 *45:18 0.0001145
117 *44:34 *45:14 7.63998094e-06
118 *44:5 *48:10 0.00099622

*RES
1 *44 *44:26 11.0398
2 *44:23 *44:26 5.62393
3 *44:23 *44:27 5.62393
4 *44:24 *44:27 5.62393
5 *44:24 *44:28 5.62393
6 *44:25 *44:28 5.62393
7 *44:25 *44:29 5.62393
8 *44:29 *44:20 7.71383
9 *44:20 *44:18 9.22549
10 *44:17 *44:18 10.4957
11 *44:17 *44:19 0.278874
12 *44:19 *44:16 3.17125
13 *44:15 *44:16 6.84638
14 *44:15 *44:14 6.84638
15 *44:13 *44:14 6.84638
16 *44:13 *44:12 6.84638
17 *44:11 *44:12 6.84638
18 *44:11 *44:9 6.84638
19 *44:8 *44:9 10.1197
20 *44:8 *44:10 0.278874
21 *44:10 *44:31 3.54711
22 *44:33 *44:31 2.27198
23 *44:6 *44:33 0.252919
24 *44:6 *44:7 11.421
25 *44:5 *44:7 0.963278
26 *44:34 *44:5 12.7895823
27 *44:34 *44:36 0.207839
28 *44:36 *44:30 4.50336
29 *44:44 *44:30 0.0946495
30 *44:40 *44:44 0.181883
31 *44:40 *44:42 0.636396
32 *44:42 *44:43 0.831354
33 *522:A2 *44:43 6.98357
34 *44:43 *44:35 8.43824
35 *44:35 *44:32 0.963278
36 *44:21 *44:32 7.5382
37 *44:22 *44:21 9.68528
38 *44:22 *44:41 7.19141
39 *523:I *44:41 6.98357
40 *44:21 *44:39 1.24703
41 *520:B1 *44:39 6.98357
42 *44:42 *44:45 6.98357
43 *44:45 *44:37 8.43824
44 *44:37 *44:38 0.727337
45 *436:A1 *44:38 6.98357
*END

*D_NET *45 0.0366824

*CONN
*I *468:I I *C 561.96 151.76 *L 0.00313 *D DEL0BWP7T
*P *45 I *C 733.32 0 *L 0
*I *516:A1 I *C 533.4 140.56 *L 0.00334 *D NR4D0BWP7T

*CAP
1 *45 0.00216357
2 *516:A1 0.000384943
3 *45:3 0.000585272
4 *45:4 0.000393526
5 *45:5 0.00100534
6 *45:6 0.000551993
7 *45:7 0.000701448
8 *45:8 0.00111927
9 *45:9 0.000600623
10 *45:10 0.000859023
11 *45:11 8.20067e-05
12 *45:12 1.35687e-05
13 *45:13 2.63121e-05
14 *45:14 0.00125853
15 *45:15 0.000626374
16 *45:16 0.000738985
17 *45:17 0.00121198
18 *45:18 0.000929673
19 *45:19 0.00101465
20 *45:20 0.00101465
21 *45:21 0.00123466
22 *45:22 0.000244303
23 *45:23 0.00117487
24 *45:24 0.00101465
25 *45:25 0.00102261
26 *45:26 0.000106404
27 *45:27 0.000863414
28 *45:28 1.98084e-06
29 *45:30 0.00109131
30 *45:31 8.05541e-05
31 *45:33 4.9686e-05
32 *45:34 0.00064747
33 *45:35 6.06466e-05
34 *45:36 0.000173389
35 *45:37 0.000782431
36 *45:38 4.58894e-05
37 *45:39 2.88542e-05
38 *45:40 0.000349783
39 *45:41 0.000655756
40 *45:42 9.50142e-05
41 *45:43 0.000260117
42 *45:22 *58:5 0.00112805
43 *45:3 *47:3 0.00261322
44 *45:7 *40:12 0.00203962
45 *45:5 *44:5 3.887e-05
46 *45:14 *44:5 4.61e-06
47 *45:3 *44:6 0.00014952
48 *45:15 *44:8 0.00027084
49 *45:16 *44:8 0.00010575
50 *45:17 *44:11 0.00033698
51 *45:16 *44:11 0.00010584
52 *45:8 *44:11 7.845e-05
53 *45:7 *44:13 0.00039033
54 *45:8 *44:13 0.00010706
55 *45:9 *44:13 5.116e-05
56 *45:10 *44:15 0.00031557
57 *45:9 *44:15 1.103e-05
58 *45:11 *44:15 9.165e-05
59 *45:12 *44:17 5.76e-06
60 *45:3 *44:7 0.00036432
61 *45:5 *44:7 0.00024072
62 *45:18 *44:7 3.053e-05
63 *45:14 *44:7 2.981e-05
64 *45:3 *44:31 2.928e-05
65 *45:18 *44:31 0.00015173
66 *45:15 *44:9 0.00018889
67 *45:17 *44:9 2.849e-05
68 *45:16 *44:9 0.00035123
69 *45:17 *44:12 6.821e-05
70 *45:7 *44:12 0.00010337
71 *45:8 *44:12 0.00026339
72 *45:7 *44:14 4.324e-05
73 *45:10 *44:14 1.152e-05
74 *45:9 *44:14 0.00046178
75 *45:10 *44:16 8.366e-05
76 *45:12 *44:16 1.145e-05
77 *45:11 *44:16 0.00018587
78 *45:3 *44:33 1.797e-05
79 *45:18 *44:33 4.158e-05
80 *45:15 *44:10 3.589e-05
81 *45:18 *44:10 0.0001145
82 *45:14 *44:34 7.64009544e-06
83 *45:3 *48:9 0.00070742

*RES
1 *45:6 *45:32 2.78304
2 *45:14 *45:32 0.278961
3 *45:14 *45:5 7.52825
4 *45:3 *45:5 6.84635
5 *45:3 *45:18 6.84635
6 *45:15 *45:18 6.84635
7 *45:15 *45:16 6.84635
8 *45:17 *45:16 6.84635
9 *45:17 *45:8 6.84635
10 *45:7 *45:8 6.84635
11 *45:7 *45:9 6.84635
12 *45:10 *45:9 6.84635
13 *45:10 *45:11 6.84635
14 *45:12 *45:11 2.67827
15 *45:13 *45:12 7.50602
16 *45:21 *45:13 5.62387
17 *45:21 *45:25 5.62387
18 *45:20 *45:25 5.62387
19 *45:20 *45:24 5.62387
20 *45:19 *45:24 5.62387
21 *45:19 *45:23 5.62387
22 *45 *45:23 11.0398655
23 *45:31 *45:6 0.253019
24 *45:22 *45:31 1.25213
25 *45:36 *45:22 7.61989
26 *45:34 *45:36 0.181931
27 *45:34 *45:35 2.2861
28 *45:35 *45:37 0.207873
29 *45:37 *45:38 3.54598
30 *45:38 *45:39 0.610481
31 *45:39 *45:41 0.103937
32 *45:41 *45:42 2.9355
33 *45:40 *45:42 0.103937
34 *45:40 *45:30 7.59395
35 *45:30 *45:33 4.80703
36 *45:43 *45:33 7.38625
37 *45:43 *45:26 0.139144
38 *45:28 *45:26 0.0817007
39 *468:I *45:28 6.98347
40 *45:38 *45:4 9.08696651
41 *45:27 *45:4 3.70264
42 *45:27 *45:29 0.278961
43 *516:A1 *45:29 1.758
*END

*D_NET *46 0.0239539

*CONN
*I *467:I I *C 559.16 136.08 *L 0.00313 *D DEL0BWP7T
*P *46 I *C 689.08 0 *L 0
*I *517:A1 I *C 555.24 132.72 *L 0.00334 *D NR4D0BWP7T

*CAP
1 *46 0.00202977
2 *517:A1 0.000222448
3 *46:3 0.000942515
4 *46:4 0.000535396
5 *46:5 0.000956765
6 *46:6 0.000750276
7 *46:7 0.000245215
8 *46:8 0.00147174
9 *46:9 9.3919e-05
10 *46:10 0.000659238
11 *46:11 0.00101465
12 *46:12 0.00101465
13 *46:13 0.00131737
14 *46:14 0.000980039
15 *46:15 0.00101465
16 *46:16 0.00207518
17 *46:17 2.53955e-05
18 *46:18 3.6035e-05
19 *46:19 0.00111278
20 *46:20 0.000379983
21 *46:22 0.000112792
22 *46:3 *43:5 0.00288229
23 *46:13 *47:11 0.00134235
24 *46:10 *63:24 0.00273838

*RES
1 *46:11 *46:15 5.62393
2 *46:12 *46:15 5.62393
3 *46:12 *46:16 5.62393
4 *46:16 *46:9 17.5067635
5 *46:9 *46:8 10.0768
6 *46:7 *46:8 6.84633
7 *46:7 *46:6 6.84633
8 *46:4 *46:6 6.84633
9 *46:4 *46:5 6.84633
10 *46:10 *46:5 6.84633
11 *46:10 *46:3 6.84633
12 *46:13 *46:3 7.03519
13 *46:17 *46:13 7.70783
14 *46:22 *46:17 0.119942
15 *46:19 *46:22 0.389746
16 *46:19 *46:20 4.1694
17 *46:18 *46:20 6.98337
18 *517:A1 *46:18 1.77109
19 *46:20 *46:21 1.24697
20 *467:I *46:21 6.98337
21 *46:11 *46:14 5.62393
22 *46 *46:14 11.0398
*END

*D_NET *47 0.024982

*CONN
*I *474:I I *C 556.92 139.44 *L 0.00313 *D DEL0BWP7T
*P *47 I *C 644.84 0 *L 0
*I *518:A1 I *C 523.32 139.44 *L 0.00246 *D NR2D0BWP7T

*CAP
1 *47 0.0020298
2 *47:4 0.000429151
3 *47:6 0.00101171
4 *47:7 0.000916723
5 *47:8 0.000592582
6 *47:9 0.000156598
7 *47:10 2.26468e-05
8 *47:11 0.00116916
9 *47:13 0.000631961
10 *47:16 0.00207285
11 *47:17 0.000490956
12 *47:18 0.00140961
13 *47:19 0.000543018
14 *47:20 0.00101465
15 *47:21 0.00101465
16 *47:22 0.00117488
17 *47:23 0.00101465
18 *47:24 0.000660333
19 *47:25 0.000183072
20 *47:26 0.000121458
21 *47:27 0.000126234
22 *47:28 7.31278e-05
23 *47:29 0.000415392
24 *47:30 0.000989154
25 *47:31 0.00011355
26 *47:32 0.000904355
27 *47:33 5.55733e-05
28 *47:11 *46:13 0.00134235
29 *47:3 *45:3 0.00261322
30 *47:3 *63:24 0.0016885

*RES
1 *47:20 *47:22 5.62394
2 *47 *47:22 11.0398
3 *47:20 *47:23 5.62394
4 *47:21 *47:23 5.62394
5 *47:21 *47:24 5.62394
6 *47:27 *47:24 10.8564
7 *47:30 *47:27 13.0103607
8 *47:17 *47:30 6.98342
9 *47:17 *47:12 8.33139
10 *47:12 *47:10 7.09042
11 *47:10 *47:9 3.78245
12 *47:8 *47:9 6.84644
13 *47:8 *47:7 6.84644
14 *47:4 *47:7 4.04291
15 *47:4 *47:5 0.117128
16 *47:3 *47:5 0.135789
17 *47:3 *47:6 9.64997
18 *47:11 *47:6 7.78128
19 *47:11 *47:14 0.135789
20 *47:15 *47:14 0.143135
21 *47:26 *47:15 0.480027
22 *47:26 *47:28 0.26602
23 *47:18 *47:28 12.3999
24 *47:19 *47:18 0.181846
25 *47:19 *47:31 1.05217
26 *474:I *47:31 6.98342
27 *47:32 *47:31 8.42529
28 *47:32 *47:33 0.441514
29 *47:33 *47:13 2.7541
30 *47:16 *47:13 7.63715
31 *47:29 *47:16 0.415706
32 *47:29 *47:25 7.59408
33 *518:A1 *47:25 6.98342
*END

*D_NET *48 0.0182162

*CONN
*I *470:I I *C 549.08 147.28 *L 0.00313 *D DEL0BWP7T
*P *48 I *C 600.04 0 *L 0
*I *517:A2 I *C 554.12 132.16 *L 0.00383 *D NR4D0BWP7T

*CAP
1 *48 0.00202978
2 *48:3 0.00101466
3 *48:4 0.0010132
4 *48:5 2.28886e-05
5 *48:6 0.00112315
6 *48:7 0.00101466
7 *48:8 0.000818014
8 *48:9 0.000354139
9 *48:10 0.00145397
10 *48:11 0.000514298
11 *48:12 0.000125438
12 *48:13 0.000474994
13 *48:14 0.000906068
14 *48:16 0.000703942
15 *48:18 0.000195839
16 *48:19 0.00124327
17 *48:20 5.24673e-05
18 *48:21 0.000241678
19 *48:23 0.000321618
20 *48:24 4.56224e-05
21 *48:25 0.00103903
22 *48:26 0.000524581
23 *48:9 *45:3 0.00070742
24 *48:11 *42:5 0.00089396
25 *48:10 *44:5 0.00099622
26 *48:5 *116:4 0.0003853

*RES
1 *48:25 *48:26 6.98342
2 *48:26 *48:21 8.8539
3 *48:21 *48:22 0.636463
4 *48:19 *48:22 0.181846
5 *48:19 *48:20 4.36432
6 *48:20 *48:23 0.207853
7 *48:23 *48:24 0.636463
8 *470:I *48:24 6.98342
9 *517:A2 *48:25 6.98342
10 *48:25 *48:11 9.68511
11 *48:11 *48:15 2.76998
12 *48:14 *48:15 0.278924
13 *48:14 *48:17 5.54016
14 *48:17 *48:18 0.252917
15 *48:18 *48:10 1.48217
16 *48:5 *48:10 10.9279
17 *48:9 *48:5 8.33734
18 *48:13 *48:9 8.33139
19 *48:13 *48:16 6.98342
20 *48:16 *48:12 13.0103607
21 *48:12 *48:8 10.8564
22 *48:4 *48:8 5.62394
23 *48:4 *48:7 5.62394
24 *48:3 *48:7 5.62394
25 *48:3 *48:6 5.62394
26 *48 *48:6 11.0398
*END

*D_NET *49 0.0146624

*CONN
*I *471:I I *C 532.84 143.92 *L 0.00313 *D DEL0BWP7T
*P *49 I *C 555.8 0 *L 0
*I *516:A2 I *C 532.28 140 *L 0.00383 *D NR4D0BWP7T

*CAP
1 *49 0.00202978
2 *49:3 0.00101466
3 *49:4 0.00101466
4 *49:5 0.00115122
5 *49:6 0.000126832
6 *49:7 0.000116704
7 *49:8 0.00113303
8 *49:9 0.00101466
9 *49:10 0.00102228
10 *49:11 0.000905759
11 *49:12 0.000989322
12 *49:13 0.000140925
13 *49:14 0.000139407
14 *49:15 0.0013316
15 *49:17 0.000385359
16 *49:18 0.000401992
17 *49:19 0.000434853
18 *49:20 0.000204511
19 *49:21 2.61408e-05
20 *49:22 0.00104207
21 *49:23 3.66404e-05

*RES
1 *49:17 *49:22 0.415578
2 *49:22 *49:23 2.9355
3 *49:18 *49:23 0.389805
4 *49:18 *49:19 0.636423
5 *516:A2 *49:19 6.98347
6 *49:19 *49:20 1.44181
7 *49:20 *49:21 0.220844
8 *471:I *49:21 6.98347
9 *49:17 *49:6 7.59395
10 *49:6 *49:16 0.493068
11 *49:15 *49:16 0.531981
12 *49:15 *49:12 5.47361
13 *49:7 *49:12 4.11451
14 *49:7 *49:13 0.506039
15 *49:13 *49:14 0.51901
16 *49:14 *49:11 9.79211903
17 *49:5 *49:11 5.62387
18 *49:5 *49:10 5.62387
19 *49:4 *49:10 5.62387
20 *49:4 *49:9 5.62387
21 *49:3 *49:9 5.62387
22 *49:3 *49:8 5.62387
23 *49 *49:8 11.0398655
*END

*D_NET *50 0.0134799

*CONN
*I *472:I I *C 519.4 151.76 *L 0.00313 *D DEL0BWP7T
*P *50 I *C 511.56 0 *L 0
*I *515:A1 I *C 520.52 131.6 *L 0.00253 *D IND4D0BWP7T

*CAP
1 *50 0.00202978
2 *515:A1 8.23867e-06
3 *50:3 0.00101466
4 *50:4 0.00101466
5 *50:6 0.000170132
6 *50:7 0.00123369
7 *50:8 0.00101466
8 *50:9 0.00136926
9 *50:10 0.000417199
10 *50:11 0.000110634
11 *50:12 0.000531363
12 *50:13 0.000791532
13 *50:14 0.00144387
14 *50:16 0.000476852
15 *50:17 0.000941687
16 *50:18 0.000607153
17 *50:19 0.000129837
18 *50:20 0.000174685

*RES
1 *50:5 *50:13 6.98354
2 *50:13 *50:10 11.2408943
3 *50:20 *50:10 8.54508
4 *50:20 *50:16 7.59398
5 *50:16 *50:18 0.831369
6 *50:18 *50:6 8.65897
7 *50:6 *50:12 0.648698
8 *515:A1 *50:12 2.38725
9 *515:A1 *50:17 6.98354
10 *50:17 *50:19 3.33817
11 *50:14 *50:19 0.389699
12 *50:14 *50:11 4.08772
13 *50:15 *50:11 0.0816447
14 *472:I *50:15 6.98354
15 *50:5 *50:9 6.99023
16 *50:4 *50:9 5.62388
17 *50:4 *50:8 5.62388
18 *50:3 *50:8 5.62388
19 *50:3 *50:7 5.62388
20 *50 *50:7 11.0399
*END

*D_NET *51 0.0172322

*CONN
*I *473:I I *C 515.48 136.08 *L 0.00313 *D DEL0BWP7T
*P *51 I *C 466.76 0 *L 0
*I *518:A2 I *C 522.48 139.72 *L 0.00263 *D NR2D0BWP7T

*CAP
1 *51 0.00202978
2 *51:3 0.00101466
3 *51:4 0.00107016
4 *51:5 0.00125194
5 *51:6 0.00150653
6 *51:7 6.04582e-05
7 *51:8 2.49948e-05
8 *51:9 0.00128502
9 *51:10 0.00101082
10 *51:11 0.00102228
11 *51:12 0.00032233
12 *51:13 0.000435101
13 *51:14 3.62687e-05
14 *51:15 0.00173176
15 *51:16 0.000402952
16 *51:17 0.000328029
17 *51:19 3.40387e-05
18 *51:20 0.0016981
19 *51:21 8.17673e-06
20 *51:22 0.000734357
21 *51:6 *55:4 0.00056669
22 *51:6 *57:7 0.00065777

*RES
1 *51 *51:9 11.0399
2 *51:3 *51:9 5.62377
3 *51:3 *51:10 5.62377
4 *51:4 *51:10 5.62377
5 *51:4 *51:11 5.62377
6 *51:5 *51:11 5.62377
7 *51:5 *51:12 5.62377
8 *51:12 *51:6 8.12945
9 *51:6 *51:13 8.20806
10 *51:7 *51:13 2.91096
11 *51:7 *51:15 0.252979
12 *51:15 *51:18 8.60213
13 *51:16 *51:18 0.278956
14 *51:16 *51:14 2.15389
15 *51:8 *51:14 0.11019
16 *51:20 *51:8 11.126997
17 *51:20 *51:22 1.42891
18 *51:22 *51:17 8.45119
19 *51:17 *51:19 1.25199
20 *51:19 *518:A2 0.139393
21 *51:20 *51:21 0.22072
22 *473:I *51:21 6.98341
*END

*D_NET *52 0.0204232

*CONN
*I *469:I I *C 504.84 136.08 *L 0.00313 *D DEL0BWP7T
*P *52 I *C 422.52 0 *L 0
*I *514:A2 I *C 493.08 132.16 *L 0.00383 *D NR4D0BWP7T

*CAP
1 *52 0.00202978
2 *52:3 0.00101467
3 *52:4 0.00107014
4 *52:5 9.39332e-05
5 *52:6 0.000967876
6 *52:7 0.000893866
7 *52:8 7.48817e-05
8 *52:9 0.00128503
9 *52:10 0.00101082
10 *52:11 0.00211616
11 *52:12 0.000562598
12 *52:13 0.0007473
13 *52:14 0.000561403
14 *52:15 0.000360814
15 *52:16 0.00019455
16 *52:17 0.00103701
17 *52:18 0.00010333
18 *52:19 7.6464e-05
19 *52:20 0.000155802
20 *52:21 5.39575e-05
21 *52:22 0.00041348
22 *52:23 5.80261e-05
23 *52:24 0.00122126
24 *52:5 *57:12 0.00200016
25 *52:5 *56:6 0.00231985

*RES
1 *52:5 *52:13 0.809677
2 *52:6 *52:13 6.84633
3 *52:6 *52:14 6.84633
4 *52:7 *52:14 6.84633
5 *52:7 *52:15 6.84633
6 *52:8 *52:15 3.67013
7 *52:8 *52:16 0.772012
8 *52:16 *52:12 7.08434
9 *52:22 *52:12 2.6008
10 *52:22 *52:18 7.47649
11 *52:17 *52:18 0.278886
12 *52:17 *52:19 4.27518
13 *52:19 *52:20 0.252974
14 *52:20 *52:21 0.519037
15 *52:24 *52:21 9.89297
16 *469:I *52:24 6.98337
17 *52:22 *52:23 1.24697
18 *514:A2 *52:23 6.98337
19 *52:11 *52:5 17.5067635
20 *52:4 *52:11 5.62393
21 *52:4 *52:10 5.62393
22 *52:3 *52:10 5.62393
23 *52:3 *52:9 5.62393
24 *52 *52:9 11.0398
*END

*D_NET *53 0.0401473

*CONN
*I *440:I I *C 555.515 155.4 *L 0.00536 *D DEL01BWP7T
*I *465:I I *C 502.04 151.76 *L 0.00313 *D DEL0BWP7T
*P *53 I *C 378.28 0 *L 0
*I *517:A3 I *C 553.56 132.16 *L 0.00386 *D NR4D0BWP7T
*I *461:A1 I *C 488.6 158.48 *L 0.00334 *D NR4D0BWP7T

*CAP
1 *53 0.00202977
2 *53:5 7.60072e-05
3 *53:6 0.00261192
4 *53:7 0.000656684
5 *53:8 0.000217992
6 *53:9 0.00101467
7 *53:10 0.00101467
8 *53:11 0.00121565
9 *53:12 0.000159167
10 *53:14 5.58628e-05
11 *53:15 0.000989914
12 *53:16 0.000829858
13 *53:17 0.00100363
14 *53:18 0.000959612
15 *53:19 0.00021723
16 *53:20 7.54147e-05
17 *53:21 0.00125213
18 *53:22 0.00101467
19 *53:23 0.000931766
20 *53:24 7.06749e-05
21 *53:25 4.3209e-05
22 *53:27 0.000451811
23 *53:28 0.00129547
24 *53:29 0.000713774
25 *53:30 0.000894355
26 *53:31 0.000545889
27 *53:32 0.000569292
28 *53:33 7.241e-05
29 *53:34 0.00068889
30 *53:35 0.00127371
31 *53:36 0.000109271
32 *53:37 4.46902e-05
33 *53:40 0.000746318
34 *53:41 0.00128319
35 *53:42 2.59847e-05
36 *53:43 0.000107324
37 *53:45 9.99605e-05
38 *53:46 0.000191796
39 *53:47 0.000131024
40 *53:48 0.000274447
41 *53:49 3.77074e-05
42 *53:50 0.000903115
43 *53:51 0.000368186
44 *53:53 4.23203e-05
45 *53:54 0.000307668
46 *53:55 0.000449314
47 *53:56 0.00053332
48 *53:57 0.000589225
49 *53:58 0.00277346
50 *53:59 7.77e-05
51 *53:60 0.00050285
52 *53:5 *22:3 0.0003626
53 *53:12 *55:9 3.54e-06
54 *53:12 *55:10 5.09e-06
55 *53:13 *55:11 8.572e-05
56 *53:15 *55:12 0.00021117
57 *53:15 *55:13 1.405e-05
58 *53:15 *55:14 6.195e-05
59 *53:16 *55:15 8.767e-05
60 *53:16 *55:14 8.489e-05
61 *53:16 *55:16 0.00013285
62 *53:17 *55:17 0.00010708
63 *53:17 *55:16 3.142e-05
64 *53:17 *55:5 0.0001092
65 *53:18 *55:4 0.00011225
66 *53:18 *55:5 8.26e-05
67 *53:18 *55:6 6.221e-05
68 *53:18 *55:18 9.595e-05
69 *53:19 *55:8 6.882e-05
70 *53:19 *55:6 1.5e-05
71 *53:19 *55:19 3.05e-06
72 *53:19 *55:20 3.284e-05
73 *53:19 *55:7 4.203e-05
74 *53:19 *55:21 4.76e-06
75 *53:25 *55:7 1.856e-05
76 *53:25 *55:9 4e-06
77 *53:28 *55:22 9.791e-05
78 *53:28 *55:11 0.0001605
79 *53:28 *55:9 3.935e-05
80 *53:30 *55:12 5.802e-05
81 *53:30 *55:15 9.391e-05
82 *53:30 *55:14 0.00014798
83 *53:31 *55:15 0.00011375
84 *53:31 *55:17 3.619e-05
85 *53:31 *55:16 0.00026692
86 *53:32 *55:17 9.734e-05
87 *53:32 *55:4 3.109e-05
88 *53:32 *55:5 0.00026491
89 *53:33 *55:4 8.968e-05
90 *53:33 *55:8 8.64e-06
91 *53:33 *55:6 9.907e-05
92 *53:34 *55:9 5.58e-06
93 *53:34 *55:10 7.156e-05
94 *53:36 *55:7 5.99e-05
95 *53:36 *55:9 3.012e-05
96 *53:6 *55:9 4.294e-05
97 *53:38 *55:9 3.128e-05
98 *53:42 *55:9 4.357e-05
99 *53:45 *55:9 1.787e-05
100 *53:45 *55:10 1.802e-05
101 *53:47 *55:9 1.849e-05
102 *53:47 *55:10 1.78e-05
103 *53:50 *55:11 0.0001186
104 *53:50 *55:10 4.08e-06
105 *53:52 *55:9 7.654e-05
106 *53:54 *55:23 1.549e-05
107 *53:56 *55:24 1.422e-05
108 *53:56 *55:25 1.384e-05
109 *53:56 *55:23 4.79400289e-05
110 *53:15 *56:15 0.00011804
111 *53:15 *56:16 6.704e-05
112 *53:15 *56:17 0.00011577
113 *53:16 *56:18 0.00014384
114 *53:16 *56:16 0.00014613
115 *53:16 *56:6 5.049e-05
116 *53:16 *56:7 4.36e-06
117 *53:17 *56:8 0.00018068
118 *53:17 *56:6 5.18e-05
119 *53:17 *56:9 0.00017256
120 *53:18 *56:10 0.00027368
121 *53:18 *56:9 4.793e-05
122 *53:18 *56:11 0.00011233
123 *53:19 *56:12 2.92e-05
124 *53:19 *56:13 6.47e-06
125 *53:19 *56:11 2.768e-05
126 *53:19 *56:19 2.198e-05
127 *53:24 *56:15 8.694e-05
128 *53:30 *56:15 5.685e-05
129 *53:30 *56:16 0.00025792
130 *53:31 *56:8 5.527e-05
131 *53:31 *56:16 9.162e-05
132 *53:31 *56:6 0.00042082
133 *53:31 *56:7 5.274e-05
134 *53:32 *56:8 0.00015706
135 *53:32 *56:10 5.552e-05
136 *53:32 *56:9 0.00041845
137 *53:33 *56:10 9.799e-05
138 *53:33 *56:12 8.4e-06
139 *53:33 *56:11 9.627e-05
140 *53:36 *56:12 5.46e-06
141 *53:56 *56:20 5.466e-05
142 *53:56 *56:21 2.38399753e-05

*RES
1 *53:11 *53:24 5.62388
2 *53:24 *53:15 7.09042
3 *53:15 *53:30 7.10394
4 *53:16 *53:30 6.84633
5 *53:16 *53:31 6.84633
6 *53:17 *53:31 6.84633
7 *53:17 *53:32 6.84633
8 *53:18 *53:32 6.84633
9 *53:18 *53:33 6.84633
10 *53:19 *53:33 1.65894
11 *53:19 *53:36 1.51802
12 *53:36 *53:39 0.745988
13 *53:39 *53:25 0.143141
14 *53:12 *53:25 0.135873
15 *53:12 *53:38 0.480097
16 *53:34 *53:38 0.279014
17 *53:34 *53:42 3.26317
18 *53:42 *53:45 0.25297
19 *53:45 *53:47 0.51886
20 *53:47 *53:6 7.08436
21 *53:46 *53:6 8.64054
22 *53:7 *53:46 0.38965
23 *53:7 *53:5 2.63306
24 *53:8 *53:5 0.081564
25 *465:I *53:8 6.98342
26 *53:8 *53:49 0.415694
27 *53:57 *53:49 8.84102
28 *53:57 *53:59 0.23379
29 *53:56 *53:59 2.49396
30 *53:54 *53:56 0.207746
31 *53:54 *53:41 7.59393
32 *53:41 *53:44 2.07827
33 *461:A1 *53:44 6.98342
34 *53:47 *53:52 0.493018
35 *53:50 *53:52 0.279014
36 *53:50 *53:28 4.93684
37 *53:13 *53:28 7.68741
38 *53:13 *53:35 0.25297
39 *53:35 *53:29 6.00546
40 *53:14 *53:29 3.6086
41 *53:14 *53:26 0.135873
42 *53:20 *53:26 0.130018
43 *53:48 *53:20 7.82772
44 *53:40 *53:48 0.181904
45 *53:40 *53:43 2.28601
46 *53:43 *53:51 0.207746
47 *53:51 *53:53 0.636361
48 *53:60 *53:53 8.02255
49 *53:60 *53:58 13.2311401
50 *53:55 *53:58 0.181904
51 *53:55 *53:27 1.17824
52 *53:37 *53:27 1.43242
53 *440:I *53:37 6.98342
54 *517:A3 *53:53 6.98342
55 *53:11 *53:23 5.62388
56 *53:10 *53:23 5.62388
57 *53:10 *53:22 5.62388
58 *53:9 *53:22 5.62388
59 *53:9 *53:21 5.62388
60 *53 *53:21 11.0398
*END

*D_NET *54 0.0337196

*CONN
*P *54 I *C 333.48 0 *L 0
*I *435:I I *C 499.515 131.88 *L 0.00325 *D DEL02BWP7T
*I *461:A2 I *C 489.72 159.04 *L 0.00383 *D NR4D0BWP7T
*I *514:A3 I *C 492.52 132.16 *L 0.00386 *D NR4D0BWP7T

*CAP
1 *54 0.00202985
2 *54:4 0.00101466
3 *54:5 0.00101466
4 *54:6 0.00117141
5 *54:7 0.00134685
6 *54:8 0.00140581
7 *54:9 0.00135954
8 *54:10 0.00144904
9 *54:11 7.14986e-05
10 *54:12 0.00125081
11 *54:13 0.00101466
12 *54:14 0.00102226
13 *54:15 9.23935e-05
14 *54:16 0.00127657
15 *54:17 0.00146667
16 *54:18 0.00135954
17 *54:19 0.00140581
18 *54:20 0.00135954
19 *54:21 0.00102856
20 *54:22 0.000459004
21 *54:23 0.000249523
22 *54:24 0.00125932
23 *54:25 0.000506417
24 *54:27 0.000161537
25 *54:28 0.000226729
26 *54:30 4.02702e-06
27 *54:31 0.000283031
28 *54:32 0.000256134
29 *54:33 7.48418e-05
30 *54:35 7.47658e-05
31 *54:36 0.00497945
32 *54:37 3.41917e-05
33 *54:38 0.00040179
34 *54:39 0.000776379
35 *54:40 0.00101511
36 *54:41 0.000633762
37 *54:42 0.000183723

*RES
1 *54:38 *54:42 0.81842
2 *54:40 *54:42 0.23374
3 *54:40 *54:31 8.63303
4 *54:31 *54:34 0.311654
5 *435:I *54:34 6.98346
6 *54:28 *54:38 6.98346
7 *514:A3 *54:28 6.98346
8 *54:36 *54:38 1.45468
9 *54:36 *54:22 1.36272
10 *54:41 *54:22 1.96254
11 *54:39 *54:41 6.98346
12 *54:39 *54:35 9.06166
13 *54:33 *54:35 0.266003
14 *54:27 *54:33 0.479991
15 *54:27 *54:30 0.278952
16 *54:24 *54:30 5.56609
17 *54:11 *54:24 0.253054
18 *54:11 *54:21 5.21866
19 *54:10 *54:21 6.84651
20 *54:10 *54:20 6.84651
21 *54:9 *54:20 6.84651
22 *54:9 *54:19 6.84651
23 *54:8 *54:19 6.84651
24 *54:8 *54:18 6.84651
25 *54:7 *54:18 6.78264
26 *54:7 *54:17 6.86845
27 *54:17 *54:26 6.98346
28 *54:23 *54:26 0.816006
29 *54:23 *54:15 0.745555
30 *54:6 *54:15 5.62381
31 *54:6 *54:14 5.62381
32 *54:5 *54:14 5.62381
33 *54:5 *54:13 5.62381
34 *54:4 *54:13 5.62381
35 *54:4 *54:12 5.62381
36 *54 *54:12 11.0398
37 *54:36 *54:16 14.3834782
38 *54:37 *54:16 1.95201
39 *54:32 *54:37 6.98346
40 *54:32 *54:25 7.39914
41 *54:25 *54:29 0.831369
42 *461:A2 *54:29 6.98346
*END

*D_NET *55 0.0425193

*CONN
*P *55 I *C 289.24 0 *L 0
*I *434:I I *C 489.435 131.88 *L 0.00325 *D DEL02BWP7T
*I *461:A3 I *C 490.28 159.04 *L 0.00386 *D NR4D0BWP7T
*I *516:A3 I *C 531.72 140 *L 0.00386 *D NR4D0BWP7T

*CAP
1 *55 0.00202978
2 *55:4 0.000503581
3 *55:5 0.00114124
4 *55:6 0.000137332
5 *55:7 0.000235205
6 *55:8 0.000127916
7 *55:9 0.00142452
8 *55:11 0.000820275
9 *55:12 0.00122676
10 *55:13 0.00135015
11 *55:14 0.00120111
12 *55:15 0.00113548
13 *55:16 0.000999605
14 *55:17 0.00129573
15 *55:20 5.26532e-07
16 *55:21 0.000999667
17 *55:23 3.49679e-05
18 *55:24 0.000210117
19 *55:25 0.000973712
20 *55:26 0.00101466
21 *55:27 0.00101466
22 *55:28 0.00123797
23 *55:29 0.00101299
24 *55:30 0.00138097
25 *55:31 0.00108967
26 *55:32 0.00118089
27 *55:33 0.00101466
28 *55:34 0.00102228
29 *55:35 8.83025e-05
30 *55:36 0.00106056
31 *55:37 0.00121353
32 *55:38 7.44268e-05
33 *55:39 0.000262461
34 *55:40 0.000169079
35 *55:41 0.000669439
36 *55:42 6.4082e-05
37 *55:43 0.000432809
38 *55:44 0.000944226
39 *55:45 0.000208104
40 *55:46 7.95992e-06
41 *55:47 0.00037105
42 *55:48 0.00193054
43 *55:49 0.000572805
44 *55:4 *51:6 0.00056669
45 *55:8 *56:13 0.00161924
46 *55:4 *57:7 0.00131751
47 *55:9 *53:12 3.54e-06
48 *55:10 *53:12 5.09e-06
49 *55:11 *53:13 8.572e-05
50 *55:12 *53:15 0.00021117
51 *55:13 *53:15 1.405e-05
52 *55:14 *53:15 6.195e-05
53 *55:15 *53:16 8.767e-05
54 *55:14 *53:16 8.489e-05
55 *55:16 *53:16 0.00013285
56 *55:17 *53:17 0.00010708
57 *55:16 *53:17 3.142e-05
58 *55:5 *53:17 0.0001092
59 *55:4 *53:18 0.00011225
60 *55:5 *53:18 8.26e-05
61 *55:6 *53:18 6.221e-05
62 *55:18 *53:18 9.595e-05
63 *55:8 *53:19 6.882e-05
64 *55:6 *53:19 1.5e-05
65 *55:19 *53:19 3.05e-06
66 *55:20 *53:19 3.284e-05
67 *55:7 *53:19 4.203e-05
68 *55:21 *53:19 4.76e-06
69 *55:7 *53:25 1.856e-05
70 *55:9 *53:25 4e-06
71 *55:22 *53:28 9.791e-05
72 *55:11 *53:28 0.0001605
73 *55:9 *53:28 3.935e-05
74 *55:12 *53:30 5.802e-05
75 *55:15 *53:30 9.391e-05
76 *55:14 *53:30 0.00014798
77 *55:15 *53:31 0.00011375
78 *55:17 *53:31 3.619e-05
79 *55:16 *53:31 0.00026692
80 *55:17 *53:32 9.734e-05
81 *55:4 *53:32 3.109e-05
82 *55:5 *53:32 0.00026491
83 *55:4 *53:33 8.968e-05
84 *55:8 *53:33 8.64e-06
85 *55:6 *53:33 9.907e-05
86 *55:9 *53:34 5.58e-06
87 *55:10 *53:34 7.156e-05
88 *55:7 *53:36 5.99e-05
89 *55:9 *53:36 3.012e-05
90 *55:9 *53:6 4.294e-05
91 *55:9 *53:38 3.128e-05
92 *55:9 *53:42 4.357e-05
93 *55:9 *53:45 1.787e-05
94 *55:10 *53:45 1.802e-05
95 *55:9 *53:47 1.849e-05
96 *55:10 *53:47 1.78e-05
97 *55:11 *53:50 0.0001186
98 *55:10 *53:50 4.08e-06
99 *55:9 *53:52 7.654e-05
100 *55:23 *53:54 1.549e-05
101 *55:24 *53:56 1.422e-05
102 *55:25 *53:56 1.384e-05
103 *55:23 *53:56 4.79399607e-05
104 *55:29 *173:3 0.00140036

*RES
1 *55:49 *55:24 2.21738
2 *55:23 *55:24 0.718088
3 *55:25 *55:23 0.181987
4 *55:25 *55:40 9.07462
5 *55:39 *55:40 6.98347
6 *461:A3 *55:39 6.98347
7 *55:48 *55:49 0.207806
8 *55:48 *55:47 11.7504654
9 *55:47 *55:46 7.39909
10 *55:21 *55:46 0.311799
11 *434:I *55:21 6.98347
12 *55:21 *55:8 10.6204
13 *55:8 *55:19 0.265899
14 *55:19 *55:6 1.89894
15 *55:4 *55:6 4.65314
16 *55:4 *55:18 0.278987
17 *55:18 *55:5 9.01384
18 *55:17 *55:5 6.84649
19 *55:17 *55:16 6.84649
20 *55:15 *55:16 6.84649
21 *55:15 *55:14 6.84649
22 *55:12 *55:14 6.84649
23 *55:12 *55:13 6.84649
24 *55:31 *55:13 6.84649
25 *55:31 *55:37 6.84649
26 *55:30 *55:37 6.84649
27 *55:30 *55:36 6.84649
28 *55:29 *55:36 6.25283
29 *55:35 *55:29 7.71375
30 *55:28 *55:35 5.62386
31 *55:28 *55:34 5.62386
32 *55:27 *55:34 5.62386
33 *55:27 *55:33 5.62386
34 *55:26 *55:33 5.62386
35 *55:26 *55:32 5.62386
36 *55 *55:32 11.0399
37 *55:8 *55:20 0.493069
38 *55:20 *55:7 0.126584
39 *55:7 *55:10 1.7711
40 *55:9 *55:10 0.152403
41 *55:9 *55:11 9.49095
42 *55:22 *55:11 7.43441
43 *55:22 *55:38 0.265899
44 *55:43 *55:38 8.86682
45 *55:41 *55:43 0.181987
46 *55:41 *55:42 2.07824
47 *55:42 *55:44 0.207806
48 *55:44 *55:45 2.29896
49 *516:A3 *55:45 6.98347
*END

*D_NET *56 0.0399209

*CONN
*P *56 I *C 244.44 0 *L 0
*I *433:I I *C 489.72 136.08 *L 0.00399 *D CKBD0BWP7T
*I *461:A4 I *C 491.4 159.04 *L 0.00382 *D NR4D0BWP7T
*I *514:A4 I *C 491.4 132.16 *L 0.00382 *D NR4D0BWP7T

*CAP
1 *56 0.00202978
2 *56:4 0.000101583
3 *56:5 0.000267602
4 *56:6 0.000682016
5 *56:7 5.77933e-05
6 *56:8 0.000968654
7 *56:9 0.000476932
8 *56:10 0.000820918
9 *56:11 0.000145853
10 *56:12 9.72352e-05
11 *56:13 0.000851047
12 *56:14 0.000197381
13 *56:15 0.00101953
14 *56:16 0.00146863
15 *56:19 5.47804e-05
16 *56:20 0.00028722
17 *56:21 0.000253976
18 *56:22 0.00101597
19 *56:23 0.000795034
20 *56:24 0.00101464
21 *56:25 0.00101464
22 *56:26 0.000183172
23 *56:27 0.0013099
24 *56:28 0.00128905
25 *56:29 0.00122503
26 *56:30 0.00101464
27 *56:31 0.00224377
28 *56:32 0.00128826
29 *56:33 0.00137636
30 *56:34 0.00140207
31 *56:35 0.00118243
32 *56:36 5.64238e-05
33 *56:37 0.00147767
34 *56:38 0.000345596
35 *56:39 0.000497063
36 *56:40 0.000111375
37 *56:42 1.0511e-05
38 *56:43 8.21706e-07
39 *56:44 3.80039e-05
40 *56:45 0.000168621
41 *56:46 0.00118754
42 *56:4 *21:15 0.00047142
43 *56:6 *52:5 0.00231985
44 *56:26 *57:24 0.00125945
45 *56:15 *53:15 0.00011804
46 *56:16 *53:15 6.704e-05
47 *56:17 *53:15 0.00011577
48 *56:18 *53:16 0.00014384
49 *56:16 *53:16 0.00014613
50 *56:6 *53:16 5.049e-05
51 *56:7 *53:16 4.36e-06
52 *56:8 *53:17 0.00018068
53 *56:6 *53:17 5.18e-05
54 *56:9 *53:17 0.00017256
55 *56:10 *53:18 0.00027368
56 *56:9 *53:18 4.793e-05
57 *56:11 *53:18 0.00011233
58 *56:12 *53:19 2.92e-05
59 *56:13 *53:19 6.47e-06
60 *56:11 *53:19 2.768e-05
61 *56:19 *53:19 2.198e-05
62 *56:15 *53:24 8.694e-05
63 *56:15 *53:30 5.685e-05
64 *56:16 *53:30 0.00025792
65 *56:8 *53:31 5.527e-05
66 *56:16 *53:31 9.162e-05
67 *56:6 *53:31 0.00042082
68 *56:7 *53:31 5.274e-05
69 *56:8 *53:32 0.00015706
70 *56:10 *53:32 5.552e-05
71 *56:9 *53:32 0.00041845
72 *56:10 *53:33 9.799e-05
73 *56:12 *53:33 8.4e-06
74 *56:11 *53:33 9.627e-05
75 *56:12 *53:36 5.46e-06
76 *56:20 *53:56 5.466e-05
77 *56:21 *53:56 2.38399579e-05
78 *56:26 *78:4 0.00071157
79 *56:13 *55:8 0.00161924

*RES
1 *56 *56:29 11.0399
2 *56:24 *56:29 5.62373
3 *56:24 *56:30 5.62373
4 *56:25 *56:30 5.62373
5 *56:25 *56:31 5.62373
6 *56:31 *56:26 17.922411
7 *56:26 *56:36 0.493074
8 *56:36 *56:37 0.252964
9 *56:37 *56:41 9.86695
10 *56:39 *56:41 0.278944
11 *56:39 *56:32 2.41396
12 *56:22 *56:32 6.84643
13 *56:22 *56:33 6.84643
14 *56:27 *56:33 6.84643
15 *56:27 *56:34 6.84643
16 *56:28 *56:34 6.84643
17 *56:28 *56:35 6.84643
18 *56:17 *56:35 6.323
19 *56:15 *56:17 0.278944
20 *56:15 *56:16 7.34388
21 *56:18 *56:16 12.3643
22 *56:18 *56:7 0.252964
23 *56:7 *56:6 1.32854
24 *56:8 *56:6 6.84643
25 *56:8 *56:9 6.84643
26 *56:10 *56:9 6.84643
27 *56:10 *56:11 6.84643
28 *56:12 *56:11 2.41806
29 *56:13 *56:12 7.29219
30 *56:14 *56:13 3.83466
31 *56:14 *56:19 0.402554
32 *514:A4 *56:19 6.98344
33 *56:14 *56:43 0.441661
34 *56:38 *56:43 0.18186
35 *56:38 *56:4 1.05206
36 *56:45 *56:4 7.39912
37 *56:46 *56:45 10.0879
38 *56:46 *56:23 0.623521
39 *56:23 *56:20 2.84085
40 *56:44 *56:20 1.34166
41 *56:21 *56:44 0.389701
42 *56:21 *56:40 7.61981
43 *56:40 *56:5 7.8148
44 *461:A4 *56:5 6.98344
45 *56:4 *56:42 0.20784
46 *433:I *56:42 6.98344
*END

*D_NET *57 0.0544548

*CONN
*I *438:I I *C 527.515 178.92 *L 0.00536 *D DEL01BWP7T
*I *466:I I *C 503.72 175.28 *L 0.00313 *D DEL0BWP7T
*P *57 I *C 200.2 0 *L 0
*I *516:A4 I *C 530.6 140 *L 0.00382 *D NR4D0BWP7T
*I *462:A1 I *C 485.8 170.8 *L 0.00246 *D NR2D0BWP7T

*CAP
1 *57 0.00202977
2 *57:5 0.00116741
3 *57:6 0.00263531
4 *57:7 0.00302768
5 *57:8 0.000382347
6 *57:9 1.17809e-05
7 *57:10 0.00193331
8 *57:11 0.00161162
9 *57:12 0.000116931
10 *57:13 0.00110038
11 *57:14 0.00100595
12 *57:16 0.000134995
13 *57:17 0.000191543
14 *57:18 9.29995e-05
15 *57:19 0.000193483
16 *57:20 3.79297e-05
17 *57:21 9.43392e-05
18 *57:22 0.000856722
19 *57:23 0.00128892
20 *57:24 0.00135914
21 *57:25 0.00108421
22 *57:26 0.0013274
23 *57:27 0.00187353
24 *57:28 0.00101468
25 *57:29 0.00101468
26 *57:30 0.00107963
27 *57:31 0.00157212
28 *57:32 1.95424e-05
29 *57:33 0.00130994
30 *57:34 0.00128906
31 *57:35 0.000190526
32 *57:36 7.59519e-05
33 *57:37 0.0018471
34 *57:38 0.00119643
35 *57:39 0.00101468
36 *57:40 0.00204811
37 *57:41 0.000486619
38 *57:42 0.000879175
39 *57:43 0.00128827
40 *57:44 0.00124674
41 *57:45 0.00140206
42 *57:46 7.33647e-05
43 *57:48 0.000528522
44 *57:50 0.00016082
45 *57:51 0.000717847
46 *57:52 0.000382023
47 *57:53 9.00427e-05
48 *57:54 1.9219e-05
49 *57:55 0.000118871
50 *57:57 8.48222e-05
51 *57:59 0.000319654
52 *57:61 9.12901e-05
53 *57:63 7.68759e-05
54 *57:64 0.000262367
55 *57:65 0.000267449
56 *57:66 0.00164669
57 *57:5 *21:6 0.00063362
58 *57:7 *51:6 0.00065777
59 *57:24 *56:26 0.00125945
60 *57:12 *52:5 0.00200016
61 *57:31 *78:7 0.00121368
62 *57:7 *55:4 0.00131751

*RES
1 *57:55 *57:59 0.19481
2 *57:59 *57:46 0.310601
3 *57:50 *57:46 0.520536
4 *57:37 *57:50 6.00103
5 *57:37 *57:54 0.103794
6 *57:54 *57:41 1.3415
7 *57:8 *57:41 1.59395
8 *57:35 *57:8 0.103794
9 *57:35 *57:7 9.65392
10 *57:52 *57:7 8.1236
11 *57:21 *57:52 0.518972
12 *57:15 *57:21 0.252966
13 *57:15 *57:10 12.5557
14 *57:13 *57:10 6.84651
15 *57:13 *57:14 6.84651
16 *57:12 *57:14 1.04968
17 *57:12 *57:49 0.278784
18 *57:49 *57:27 12.6173
19 *57:25 *57:27 6.84651
20 *57:25 *57:26 6.84651
21 *57:34 *57:26 6.84651
22 *57:34 *57:45 6.84651
23 *57:33 *57:45 6.84651
24 *57:33 *57:44 6.84651
25 *57:23 *57:44 6.84651
26 *57:23 *57:43 6.84651
27 *57:48 *57:43 2.43995
28 *57:32 *57:48 0.252966
29 *57:32 *57:24 11.2528
30 *57:31 *57:24 9.21448
31 *57:31 *57:47 0.278784
32 *57:47 *57:42 4.45246
33 *57:30 *57:42 5.40148
34 *57:40 *57:30 17.0911179
35 *57:29 *57:40 5.62393
36 *57:29 *57:39 5.62393
37 *57:28 *57:39 5.62393
38 *57:28 *57:38 5.62393
39 *57 *57:38 11.0398
40 *57:52 *57:60 0.493153
41 *57:57 *57:60 0.278784
42 *57:57 *57:17 0.0991001
43 *57:20 *57:17 2.65797
44 *57:20 *57:18 0.252966
45 *57:18 *57:19 0.518972
46 *57:19 *57:16 8.1236
47 *57:16 *57:11 7.7139
48 *57:11 *57:9 10.5158
49 *57:36 *57:9 0.603207
50 *57:36 *57:22 0.252966
51 *57:22 *57:58 4.80714
52 *57:53 *57:58 0.278784
53 *57:53 *57:61 0.480114
54 *57:61 *57:63 0.518972
55 *57:66 *57:63 12.5948
56 *57:64 *57:66 6.98343
57 *57:64 *516:A4 1.01213
58 *57:59 *57:62 1.05203
59 *57:6 *57:62 13.6338
60 *57:6 *57:5 4.27382
61 *57:51 *57:5 11.4382
62 *57:51 *57:56 1.76659
63 *438:I *57:56 6.98343
64 *57:6 *57:65 7.39913
65 *466:I *57:65 6.98343
66 *462:A1 *57:55 6.98343
*END

*D_NET *58 0.0623252

*CONN
*I *439:I I *C 549.355 171.08 *L 0.00536 *D DEL01BWP7T
*I *464:I I *C 503.72 162.96 *L 0.00313 *D DEL0BWP7T
*P *58 I *C 155.96 0 *L 0
*I *517:A4 I *C 552.44 132.16 *L 0.00382 *D NR4D0BWP7T
*I *462:A2 I *C 484.96 171.08 *L 0.00263 *D NR2D0BWP7T

*CAP
1 *58 0.00202978
2 *517:A4 1.59818e-05
3 *58:5 0.000982075
4 *58:6 0.000676098
5 *58:7 0.000137332
6 *58:8 0.00193826
7 *58:9 0.00135037
8 *58:10 0.00135752
9 *58:11 0.00140383
10 *58:12 0.0013517
11 *58:13 0.0011156
12 *58:14 0.00114453
13 *58:15 0.00109333
14 *58:16 0.00114453
15 *58:17 0.00114453
16 *58:18 0.0019945
17 *58:19 0.000851402
18 *58:20 0.00124159
19 *58:21 0.00112789
20 *58:22 0.00113006
21 *58:23 0.000181003
22 *58:24 0.000488033
23 *58:25 0.000401775
24 *58:26 0.000303468
25 *58:27 0.000833933
26 *58:28 0.000550907
27 *58:29 0.00128149
28 *58:30 0.00100007
29 *58:31 0.00109333
30 *58:32 0.00140383
31 *58:33 0.00140383
32 *58:34 0.00135752
33 *58:35 0.00114168
34 *58:36 0.00112207
35 *58:37 0.00113703
36 *58:38 0.00113709
37 *58:39 0.00109333
38 *58:40 0.00192342
39 *58:41 0.00123986
40 *58:42 0.00115518
41 *58:43 0.000451609
42 *58:44 0.000394837
43 *58:46 3.62687e-05
44 *58:47 0.000236103
45 *58:48 1.6849e-05
46 *58:49 0.000329795
47 *58:50 5.12904e-05
48 *58:52 3.92421e-05
49 *58:53 0.000121815
50 *58:54 0.000654262
51 *58:55 0.00195836
52 *58:56 0.000697964
53 *58:57 4.99895e-05
54 *58:58 0.000128567
55 *58:59 0.000298977
56 *58:60 7.57277e-05
57 *58:61 0.000757339
58 *58:62 0.000568933
59 *58:63 0.000652342
60 *58:64 0.000210241
61 *58:65 0.000142907
62 *58:66 0.000125593
63 *58:68 1.40615e-05
64 *58:69 0.000298605
65 *58:70 0.000284668
66 *58:71 9.7811e-05
67 *58:72 0.000773289
68 *58:73 9.45899e-05
69 *58:74 0.00151842
70 *58:5 *45:22 0.00112805
71 *58:18 *95:4 0.00208018
72 *58:47 *354:5 0.00059834
73 *58:8 *83:4 0.00031644
74 *58:8 *83:5 1.8e-06
75 *58:8 *83:6 0.00012671
76 *58:9 *83:7 5.331e-05
77 *58:12 *83:8 5.213e-05
78 *58:13 *83:9 0.00026337
79 *58:14 *83:10 0.00012549
80 *58:14 *83:11 0.00013383
81 *58:15 *83:12 0.00022194
82 *58:15 *83:13 4.226e-05
83 *58:16 *83:14 0.00023052
84 *58:16 *83:15 2.88e-05
85 *58:17 *83:16 9.265e-05
86 *58:17 *83:17 0.00016667
87 *58:18 *83:18 4.499e-05
88 *58:26 *83:5 4.355e-05
89 *58:31 *83:7 0.0002642
90 *58:35 *83:9 0.00020527
91 *58:35 *83:8 5.405e-05
92 *58:36 *83:10 3.072e-05
93 *58:36 *83:19 0.00022944
94 *58:37 *83:12 7.5e-06
95 *58:37 *83:11 0.00025182
96 *58:38 *83:14 0.00014537
97 *58:38 *83:13 0.00011395
98 *58:39 *83:16 8.309e-05
99 *58:39 *83:15 0.00018111
100 *58:40 *83:20 0.00018062
101 *58:40 *83:17 0.00020921
102 *58:40 *83:18 5.77099725e-05

*RES
1 *58 *58:26 11.0399
2 *58:26 *58:8 8.41313
3 *58:8 *58:31 11.696
4 *58:9 *58:31 6.84644
5 *58:9 *58:32 6.84644
6 *58:10 *58:32 6.84644
7 *58:10 *58:33 6.84644
8 *58:11 *58:33 6.84644
9 *58:11 *58:34 6.84644
10 *58:12 *58:34 6.84644
11 *58:12 *58:35 6.84644
12 *58:13 *58:35 6.84644
13 *58:13 *58:36 6.84644
14 *58:14 *58:36 6.84644
15 *58:14 *58:37 6.84644
16 *58:15 *58:37 6.84644
17 *58:15 *58:38 6.84644
18 *58:16 *58:38 6.84644
19 *58:16 *58:39 6.84644
20 *58:17 *58:39 6.84644
21 *58:17 *58:40 6.84644
22 *58:18 *58:40 11.8098
23 *58:27 *58:18 16.801651
24 *58:19 *58:27 5.6238
25 *58:19 *58:28 5.6238
26 *58:53 *58:28 10.8564
27 *58:72 *58:53 13.0104
28 *58:58 *58:72 6.9836
29 *58:58 *58:49 8.23034
30 *58:66 *58:49 7.3861
31 *58:66 *58:48 0.11383
32 *58:59 *58:48 0.0938325
33 *58:59 *58:41 1.14419
34 *58:21 *58:41 5.6238
35 *58:21 *58:42 5.6238
36 *58:22 *58:42 5.6238
37 *58:22 *58:43 5.6238
38 *58:5 *58:43 9.12713
39 *58:5 *58:55 3.74074
40 *58:23 *58:55 6.9836
41 *58:23 *517:A4 0.50608
42 *58:55 *58:7 7.39995
43 *58:65 *58:7 0.692207
44 *58:65 *58:6 0.41558
45 *58:6 *58:71 1.8705
46 *58:71 *58:74 0.207918
47 *58:74 *58:52 10.3216
48 *58:25 *58:52 1.51798
49 *58:62 *58:25 8.33442
50 *439:I *58:62 6.9836
51 *58:49 *58:29 0.101011
52 *58:50 *58:29 4.48422
53 *58:20 *58:50 0.182025
54 *58:20 *58:45 4.57215
55 *58:45 *58:54 0.207918
56 *58:54 *58:30 2.21737
57 *58:63 *58:30 3.82252
58 *58:63 *58:67 0.636317
59 *58:56 *58:67 0.182025
60 *58:56 *58:60 2.07816
61 *58:60 *58:69 0.207918
62 *58:69 *58:24 7.61991
63 *58:24 *58:46 1.75795
64 *58:46 *462:A2 0.139467
65 *58:63 *58:44 8.53029
66 *58:57 *58:44 1.3498
67 *58:57 *58:61 0.103831
68 *58:61 *58:68 2.93547
69 *58:64 *58:68 0.103831
70 *58:64 *58:70 0.610424
71 *58:70 *58:73 1.45466
72 *58:73 *58:47 7.60684
73 *58:47 *58:51 0.41558
74 *464:I *58:51 6.9836
*END

*D_NET *59 0.0455925

*CONN
*I *512:I I *C 497.275 139.72 *L 0.00536 *D DEL01BWP7T
*P *59 I *C 111.16 0 *L 0
*I *460:B I *C 489.72 163.52 *L 0.00285 *D AO21D0BWP7T

*CAP
1 *59 0.00202978
2 *59:3 0.000496241
3 *59:4 0.000797665
4 *59:5 0.000943669
5 *59:6 0.000691615
6 *59:7 0.000761891
7 *59:8 0.000960239
8 *59:9 0.000639643
9 *59:10 0.000723548
10 *59:11 0.000919386
11 *59:12 0.000836132
12 *59:13 0.000709269
13 *59:14 0.00071853
14 *59:15 1.38757e-05
15 *59:16 0.00160261
16 *59:17 0.000839663
17 *59:18 0.00120439
18 *59:19 0.000685606
19 *59:20 0.00101466
20 *59:21 0.00102228
21 *59:22 1.22031e-05
22 *59:23 0.000437269
23 *59:24 0.000953952
24 *59:25 0.000604427
25 *59:26 0.000795249
26 *59:27 0.000957916
27 *59:28 0.000752786
28 *59:29 0.000761396
29 *59:30 0.00102339
30 *59:31 0.000662965
31 *59:32 0.000691336
32 *59:33 0.000834553
33 *59:34 0.000879215
34 *59:35 0.00141625
35 *59:36 0.000592844
36 *59:37 0.000548182
37 *59:38 0.000186268
38 *59:39 7.82364e-05
39 *59:40 0.000510209
40 *59:41 0.000754954
41 *59:43 0.000187012
42 *59:44 8.92317e-05
43 *59:45 0.00109819
44 *59:46 0.0010845
45 *59:47 6.16662e-05
46 *59:48 0.000180755
47 *59:49 0.000408465
48 *59:50 1.62296e-05
49 *59:51 0.00015511
50 *59:52 5.11665e-05
51 *59:53 7.77409e-05
52 *59:54 0.000808474
53 *59:55 0.000841708
54 *59:56 0.000427048
55 *59:57 0.000113514
56 *59:3 *107:4 0.00013216
57 *59:3 *107:5 0.00013301
58 *59:4 *107:5 5.993e-05
59 *59:4 *107:6 0.00019642
60 *59:5 *107:7 0.00018763
61 *59:5 *107:6 0.00012344
62 *59:5 *107:8 7.531e-05
63 *59:6 *107:9 7.989e-05
64 *59:6 *107:8 0.0001774
65 *59:6 *107:10 0.0001434
66 *59:7 *107:10 9.57e-05
67 *59:7 *107:11 0.00019642
68 *59:8 *107:12 0.00010986
69 *59:8 *107:11 0.00014472
70 *59:8 *107:13 0.00011467
71 *59:9 *107:14 0.00027964
72 *59:9 *107:13 0.0001774
73 *59:9 *107:15 3.876e-05
74 *59:10 *107:15 0.0001278
75 *59:10 *107:16 0.00019642
76 *59:11 *107:17 0.0001792
77 *59:11 *107:16 8.06e-06
78 *59:11 *107:18 9.269e-05
79 *59:12 *107:19 0.00031403
80 *59:12 *107:18 4.36e-06
81 *59:12 *107:20 1.591e-05
82 *59:13 *107:21 0.00032617
83 *59:13 *107:20 8.969e-05
84 *59:13 *107:22 1.559e-05
85 *59:14 *107:23 0.00013525
86 *59:14 *107:22 4.421e-05
87 *59:14 *107:24 0.00012392
88 *59:15 *107:25 0.00010528
89 *59:15 *107:24 2.573e-05
90 *59:19 *107:4 6.688e-05
91 *59:24 *107:26 5.746e-05
92 *59:24 *107:5 0.00021365
93 *59:25 *107:26 0.00019517
94 *59:25 *107:7 0.00013732
95 *59:25 *107:6 0.00011592
96 *59:26 *107:7 6.231e-05
97 *59:26 *107:9 0.00019642
98 *59:27 *107:9 0.00013041
99 *59:27 *107:27 0.00011415
100 *59:27 *107:10 0.00011541
101 *59:28 *107:27 0.0001774
102 *59:28 *107:12 0.00015924
103 *59:28 *107:11 4.945e-05
104 *59:29 *107:12 9.617e-05
105 *59:29 *107:14 0.00019642
106 *59:30 *107:14 3.5e-05
107 *59:30 *107:28 0.0001404
108 *59:30 *107:15 5.512e-05
109 *59:31 *107:28 0.0001774
110 *59:31 *107:17 7.82e-06
111 *59:31 *107:16 0.00032808
112 *59:32 *107:17 7.602e-05
113 *59:32 *107:19 4.17e-06
114 *59:32 *107:18 0.00035631
115 *59:33 *107:19 1.595e-05
116 *59:33 *107:21 9.832e-05
117 *59:33 *107:20 0.00016539
118 *59:34 *107:21 1.508e-05
119 *59:34 *107:23 3.364e-05
120 *59:34 *107:22 0.00025626
121 *59:35 *107:23 0.000104
122 *59:35 *107:25 0.00013631
123 *59:35 *107:24 0.00029815
124 *59:35 *107:29 9.83e-06
125 *59:36 *107:25 6.074e-05
126 *59:36 *107:29 5.393e-05
127 *59:37 *107:25 1.928e-05
128 *59:38 *107:29 2.254e-05
129 *59:43 *107:29 0.00010381997

*RES
1 *59 *59:19 11.0398655
2 *59:3 *59:19 3.09216
3 *59:24 *59:3 10.7213
4 *59:4 *59:24 5.62387
5 *59:4 *59:25 5.62387
6 *59:5 *59:25 5.62387
7 *59:5 *59:26 5.62387
8 *59:6 *59:26 5.62387
9 *59:6 *59:27 5.62387
10 *59:7 *59:27 5.62387
11 *59:7 *59:28 5.62387
12 *59:8 *59:28 5.62387
13 *59:8 *59:29 5.62387
14 *59:9 *59:29 5.62387
15 *59:9 *59:30 5.62387
16 *59:10 *59:30 5.62387
17 *59:10 *59:31 5.62387
18 *59:11 *59:31 5.62387
19 *59:11 *59:32 5.62387
20 *59:12 *59:32 5.62387
21 *59:12 *59:33 5.62387
22 *59:13 *59:33 5.62387
23 *59:13 *59:34 5.62387
24 *59:14 *59:34 5.62387
25 *59:14 *59:35 5.62387
26 *59:15 *59:35 9.28524
27 *59:15 *59:37 6.98347
28 *59:37 *59:36 8.94597
29 *59:43 *59:36 10.8400784
30 *59:38 *59:43 6.98347
31 *59:38 *59:16 7.60692
32 *59:16 *59:20 8.15558
33 *59:17 *59:20 5.62387
34 *59:17 *59:21 5.62387
35 *59:18 *59:21 5.62387
36 *59:18 *59:22 5.62387
37 *59:39 *59:22 0.0939979
38 *59:39 *59:46 0.207873
39 *59:46 *59:47 3.55895
40 *59:41 *59:47 0.181931
41 *59:41 *59:44 2.07823
42 *59:44 *59:49 0.207873
43 *59:49 *59:51 1.15594
44 *512:I *59:51 6.98347
45 *59:51 *59:53 0.506544
46 *59:53 *59:56 0.207873
47 *59:56 *59:57 1.68842
48 *59:54 *59:57 0.181931
49 *59:54 *59:23 2.21737
50 *59:52 *59:23 1.34158
51 *59:48 *59:52 0.181931
52 *59:48 *59:50 0.233816
53 *59:45 *59:50 0.181931
54 *59:55 *59:45 9.07467
55 *59:55 *59:40 9.47745
56 *59:40 *59:42 0.831325
57 *460:B *59:42 6.98347
*END

*D_NET *60 0.0768737

*CONN
*P *60 I *C 66.92 0 *L 0
*I *529:S I *C 834.12 131.6 *L 0.00808 *D CKMUX2D1BWP7T

*CAP
1 *60 0.00202978
2 *60:2 0.00126437
3 *60:3 0.00133331
4 *60:4 0.00130213
5 *60:5 0.00128899
6 *60:6 0.00128825
7 *60:7 0.00133585
8 *60:8 0.00128938
9 *60:9 0.00138968
10 *60:10 0.00133585
11 *60:11 0.00128938
12 *60:12 0.00133585
13 *60:13 0.00132839
14 *60:14 0.00140208
15 *60:15 0.00124673
16 *60:16 0.00128825
17 *60:17 0.00133585
18 *60:18 0.0013908
19 *60:19 0.001339
20 *60:20 0.00138344
21 *60:21 0.00133736
22 *60:22 0.0012905
23 *60:23 0.00133585
24 *60:24 0.00128938
25 *60:25 0.00138457
26 *60:26 0.00138042
27 *60:27 0.00133697
28 *60:28 0.00133697
29 *60:29 0.00128905
30 *60:30 0.00133585
31 *60:31 0.0013381
32 *60:32 0.00101467
33 *60:33 0.00101467
34 *60:34 0.00210611
35 *60:35 0.00128825
36 *60:36 0.00128825
37 *60:37 0.00133697
38 *60:38 0.00138698
39 *60:39 0.00128825
40 *60:40 0.00130991
41 *60:41 0.00129275
42 *60:42 0.00137377
43 *60:43 0.0013381
44 *60:44 0.00133585
45 *60:45 0.000755545
46 *60:46 0.000945733
47 *60:47 0.00101467
48 *60:48 0.00153484
49 *60:49 0.00130278
50 *60:50 0.00128825
51 *60:51 0.00128938
52 *60:52 0.00133585
53 *60:53 0.00132627
54 *60:54 0.0013908
55 *60:55 0.0013381
56 *60:56 0.00128825
57 *60:57 0.00128825
58 *60:58 0.00131885
59 *60:59 0.000229138

*RES
1 *60:59 *60:49 3.84765
2 *60:49 *60:45 10.4096
3 *60:45 *60:58 6.634
4 *60:44 *60:58 6.84635
5 *60:44 *60:57 6.84635
6 *60:43 *60:57 6.84635
7 *60:43 *60:56 6.84635
8 *60:42 *60:56 6.84635
9 *60:42 *60:55 6.84635
10 *60:41 *60:55 6.84635
11 *60:41 *60:2 6.84635
12 *60:18 *60:2 6.84635
13 *60:18 *60:3 6.84635
14 *60:19 *60:3 6.84635
15 *60:19 *60:4 6.84635
16 *60:20 *60:4 6.84635
17 *60:20 *60:5 6.84635
18 *60:21 *60:5 6.84635
19 *60:21 *60:6 6.84635
20 *60:22 *60:6 6.84635
21 *60:22 *60:7 6.84635
22 *60:23 *60:7 6.84635
23 *60:23 *60:8 6.84635
24 *60:24 *60:8 6.84635
25 *60:24 *60:9 6.84635
26 *60:25 *60:9 6.84635
27 *60:25 *60:10 6.84635
28 *60:26 *60:10 6.84635
29 *60:26 *60:11 6.84635
30 *60:27 *60:11 6.84635
31 *60:27 *60:12 6.84635
32 *60:28 *60:12 6.84635
33 *60:28 *60:13 6.84635
34 *60:29 *60:13 6.84635
35 *60:29 *60:14 6.84635
36 *60:40 *60:14 6.84635
37 *60:40 *60:15 6.84635
38 *60:30 *60:15 6.84635
39 *60:30 *60:16 6.84635
40 *60:31 *60:16 6.84635
41 *60:31 *60:17 6.84635
42 *60:39 *60:17 6.84635
43 *60:39 *60:54 6.84635
44 *60:38 *60:54 6.84635
45 *60:38 *60:53 6.84635
46 *60:37 *60:53 6.84635
47 *60:37 *60:52 6.84635
48 *60:36 *60:52 6.84635
49 *60:36 *60:51 6.84635
50 *60:35 *60:51 6.84635
51 *60:35 *60:50 6.84635
52 *60:34 *60:50 10.8447
53 *60:48 *60:34 14.8050632
54 *60:33 *60:48 5.62374
55 *60:33 *60:47 5.62374
56 *60:32 *60:47 5.62374
57 *60:32 *60:46 5.62374
58 *60 *60:46 11.0399
59 *529:S *60:59 6.98347
*END

*D_NET *61 0.0803293

*CONN
*P *61 I *C 22.68 0 *L 0
*I *527:A2 I *C 822.36 132.16 *L 0.00339 *D CKXOR2D1BWP7T

*CAP
1 *61 0.00208949
2 *61:2 0.00126438
3 *61:3 0.00133331
4 *61:4 0.00129052
5 *61:5 0.00128899
6 *61:6 0.00128826
7 *61:7 0.00133586
8 *61:8 0.0012894
9 *61:9 0.00138968
10 *61:10 0.00133586
11 *61:11 0.0012894
12 *61:12 0.00133586
13 *61:13 0.00132837
14 *61:14 0.0013892
15 *61:15 0.00124674
16 *61:16 0.00128826
17 *61:17 0.00133586
18 *61:18 0.00139083
19 *61:19 0.00133697
20 *61:20 0.00138346
21 *61:21 0.00133736
22 *61:22 0.00129052
23 *61:23 0.00133586
24 *61:24 0.0013379
25 *61:25 0.00138458
26 *61:26 0.0013804
27 *61:27 0.00133697
28 *61:28 0.0013431
29 *61:29 0.00128905
30 *61:30 0.00133586
31 *61:31 0.00133809
32 *61:32 0.00101466
33 *61:33 0.00101466
34 *61:34 0.000663848
35 *61:35 0.0012894
36 *61:36 0.00133809
37 *61:37 0.00128826
38 *61:38 0.00128826
39 *61:39 0.00133697
40 *61:40 0.00138697
41 *61:41 0.00128826
42 *61:42 0.0013099
43 *61:43 0.00129275
44 *61:44 0.00137377
45 *61:45 0.00133809
46 *61:46 0.00133586
47 *61:47 3.20749e-05
48 *61:48 0.000957878
49 *61:49 0.00101466
50 *61:50 0.000193119
51 *61:51 0.00131701
52 *61:52 0.00132668
53 *61:53 0.00133586
54 *61:54 0.00128826
55 *61:55 0.0012894
56 *61:56 0.00133586
57 *61:57 0.00132626
58 *61:58 0.00137852
59 *61:59 0.00133809
60 *61:60 0.00128826
61 *61:61 0.00128826
62 *61:62 0.000137195
63 *61:63 0.000221463
64 *61:64 0.000189675
65 *61:65 0.000281755
66 *61:66 0.000695317
67 *61:67 0.000126227
68 *61:68 0.000160916
69 *61:69 0.000124155
70 *61:70 0.000242188
71 *61:71 0.000940055

*RES
1 *61:41 *61:17 6.84647
2 *61:31 *61:17 6.84647
3 *61:31 *61:16 6.84647
4 *61:30 *61:16 6.84647
5 *61:30 *61:15 6.84647
6 *61:42 *61:15 6.84647
7 *61:42 *61:14 6.84647
8 *61:29 *61:14 6.84647
9 *61:29 *61:13 6.84647
10 *61:28 *61:13 6.84647
11 *61:28 *61:12 6.84647
12 *61:27 *61:12 6.84647
13 *61:27 *61:11 6.84647
14 *61:26 *61:11 6.84647
15 *61:26 *61:10 6.84647
16 *61:25 *61:10 6.84647
17 *61:25 *61:9 6.84647
18 *61:24 *61:9 6.84647
19 *61:24 *61:8 6.84647
20 *61:23 *61:8 6.84647
21 *61:23 *61:7 6.84647
22 *61:22 *61:7 6.84647
23 *61:22 *61:6 6.84647
24 *61:21 *61:6 6.84647
25 *61:21 *61:5 6.84647
26 *61:20 *61:5 6.84647
27 *61:20 *61:4 6.84647
28 *61:19 *61:4 6.84647
29 *61:19 *61:3 6.84647
30 *61:18 *61:3 6.84647
31 *61:18 *61:2 6.84647
32 *61:43 *61:2 6.84647
33 *61:43 *61:59 6.84647
34 *61:44 *61:59 6.84647
35 *61:44 *61:60 6.84647
36 *61:45 *61:60 6.84647
37 *61:45 *61:61 6.84647
38 *61:46 *61:61 6.84647
39 *61:46 *61:62 6.84647
40 *61:47 *61:62 0.815005
41 *61:65 *61:47 7.80174
42 *61:65 *61:66 0.207854
43 *61:66 *61:68 2.70171
44 *61:68 *61:70 0.623561
45 *61:70 *61:51 0.737451
46 *61:63 *61:51 4.05549
47 *527:A2 *61:63 6.98342
48 *61:41 *61:58 6.84647
49 *61:40 *61:58 6.84647
50 *61:40 *61:57 6.84647
51 *61:39 *61:57 6.84647
52 *61:39 *61:56 6.84647
53 *61:38 *61:56 6.84647
54 *61:38 *61:55 6.84647
55 *61:37 *61:55 6.84647
56 *61:37 *61:54 6.84647
57 *61:36 *61:54 6.84647
58 *61:36 *61:53 6.84647
59 *61:35 *61:53 6.84647
60 *61:35 *61:52 6.84647
61 *61:34 *61:52 3.44619
62 *61:64 *61:34 7.39912
63 *61:64 *61:69 6.98342
64 *61:69 *61:71 6.98342
65 *61:71 *61:67 12.8025379
66 *61:67 *61:50 7.73903
67 *61:33 *61:50 5.62377
68 *61:33 *61:49 5.62377
69 *61:32 *61:49 5.62377
70 *61:32 *61:48 5.62377
71 *61 *61:48 11.0399
*END

*D_NET *62 0.0221434

*CONN
*P *62 I *C 978.04 0 *L 0
*I *529:I1 I *C 835.8 132.16 *L 0.00385 *D CKMUX2D1BWP7T

*CAP
1 *62 0.00216208
2 *62:2 0.00101465
3 *62:3 0.00101465
4 *62:4 0.00148731
5 *62:5 0.00133809
6 *62:6 0.00128827
7 *62:7 0.00128827
8 *62:8 0.00132189
9 *62:9 3.15396e-05
10 *62:10 0.000968259
11 *62:11 0.00101465
12 *62:12 0.000761174
13 *62:13 0.00110643
14 *62:14 0.00128827
15 *62:15 0.00133585
16 *62:16 0.00133697
17 *62:17 0.00128827
18 *62:18 0.000675264
19 *62:19 4.63857e-05
20 *62:20 0.000189304
21 *62:21 0.000126224
22 *62:22 0.00011956
23 *62:23 0.000940052

*RES
1 *62:2 *62:11 5.62377
2 *62:3 *62:11 5.62377
3 *62:3 *62:12 5.62377
4 *62:21 *62:12 10.8564
5 *62:23 *62:21 12.8025379
6 *62:22 *62:23 6.98342
7 *62:20 *62:22 6.98342
8 *62:20 *62:9 7.39912
9 *62:9 *62:18 3.69741
10 *62:8 *62:18 6.84647
11 *62:8 *62:17 6.84647
12 *62:7 *62:17 6.84647
13 *62:7 *62:16 6.84647
14 *62:6 *62:16 6.84647
15 *62:6 *62:15 6.84647
16 *62:5 *62:15 6.84647
17 *62:5 *62:14 6.84647
18 *62:4 *62:14 5.79373
19 *62:13 *62:4 8.12349
20 *62:19 *62:13 4.05549
21 *529:I1 *62:19 6.98342
22 *62:2 *62:10 5.62377
23 *62 *62:10 11.0399
*END

*D_NET *63 0.0558106

*CONN
*I *436:Z O *C 571.48 156.8 *L 0 *D AO22D1BWP7T
*P *416 O *C 800.52 0 *L 0.005
*P *63 O *C 933.8 0 *L 0.005
*I *529:I0 I *C 833.56 132.16 *L 0.00371 *D CKMUX2D1BWP7T
*I *526:A2 I *C 810.6 132.16 *L 0.00339 *D CKXOR2D1BWP7T

*CAP
1 *416 0.0013158
2 *63 0.00131643
3 *63:5 0.000511904
4 *63:6 0.00229307
5 *63:7 0.000951798
6 *63:8 0.000725658
7 *63:9 2.55427e-06
8 *63:10 0.000284994
9 *63:12 0.000563199
10 *63:13 0.000867192
11 *63:14 0.000856835
12 *63:15 0.000851167
13 *63:16 0.000540631
14 *63:17 0.000735805
15 *63:19 9.91617e-05
16 *63:20 0.0005956
17 *63:21 0.000364946
18 *63:23 0.00129113
19 *63:24 0.000622017
20 *63:25 0.0010709
21 *63:26 0.000468131
22 *63:27 0.000233908
23 *63:28 4.10083e-05
24 *63:29 0.000496683
25 *63:30 0.00179544
26 *63:31 0.00127804
27 *63:32 0.00133585
28 *63:33 0.00133809
29 *63:34 0.00128826
30 *63:35 0.00101464
31 *63:36 0.00101464
32 *63:37 0.00064889
33 *63:38 0.00109869
34 *63:39 0.000199338
35 *63:40 0.0010582
36 *63:41 0.00101464
37 *63:42 0.00219471
38 *63:43 0.000421175
39 *63:44 0.00128826
40 *63:45 0.00133585
41 *63:46 0.00212043
42 *63:47 0.00145359
43 *63:48 0.00152616
44 *63:49 4.85661e-05
45 *63:50 0.000159834
46 *63:51 1.767e-05
47 *63:52 3.18059e-05
48 *63:53 2.40031e-05
49 *63:54 0.000817646
50 *63:55 4.41574e-05
51 *63:57 5.5984e-07
52 *63:58 0.000909005
53 *63:59 0.000299444
54 *63:60 0.000435521
55 *63:61 3.68095e-05
56 *63:62 0.000718205
57 *63:24 *46:10 0.00273838
58 *63:5 *32:23 0.00066101
59 *63:24 *47:3 0.0016885
60 *63:12 *43:9 0.00024632
61 *63:8 *43:9 6.94e-06
62 *63:13 *43:9 6.965e-05
63 *63:14 *43:10 0.000121
64 *63:13 *43:10 0.00010757
65 *63:15 *43:10 0.00012595
66 *63:16 *43:11 0.00022547
67 *63:15 *43:11 0.00017994
68 *63:17 *43:11 7.348e-05
69 *63:18 *43:12 7.317e-05
70 *63:17 *43:12 5.602e-05
71 *63:6 *43:14 2.692e-05
72 *63:23 *43:15 4.696e-05
73 *63:12 *43:23 0.0001583
74 *63:8 *43:23 0.00036046
75 *63:10 *43:23 3.522e-05
76 *63:12 *43:24 6.363e-05
77 *63:14 *43:24 0.00011341
78 *63:13 *43:24 0.00015018
79 *63:14 *43:25 0.00011646
80 *63:16 *43:25 0.00020322
81 *63:16 *43:26 7.221e-05
82 *63:18 *43:26 4.12e-05
83 *63:17 *43:26 0.00030549
84 *63:8 *43:30 3.215e-05
85 *63:10 *43:30 4.662e-05
86 *63:11 *43:30 4.91498785e-05
87 *63:7 *40:12 0.00022526
88 *63:8 *40:12 3.415e-05
89 *63:9 *40:12 6.15e-06
90 *63:10 *40:12 0.00023978
91 *63:11 *40:12 4.564e-05
92 *63:12 *40:13 0.00022629
93 *63:8 *40:13 7.03e-06
94 *63:13 *40:13 6.084e-05
95 *63:14 *40:14 0.00011374
96 *63:13 *40:14 0.00010247
97 *63:15 *40:14 0.00011646
98 *63:16 *40:15 0.00021683
99 *63:15 *40:15 0.00017994
100 *63:17 *40:15 8.045e-05
101 *63:17 *40:16 4.579e-05
102 *63:7 *40:30 2.111e-05
103 *63:12 *40:30 0.00013478
104 *63:8 *40:30 0.00033115
105 *63:10 *40:30 7.818e-05
106 *63:12 *40:31 6.363e-05
107 *63:14 *40:31 9.457e-05
108 *63:13 *40:31 0.00015247
109 *63:14 *40:32 0.00011136
110 *63:16 *40:32 0.00017994
111 *63:16 *40:33 6.711e-05
112 *63:18 *40:33 4.828e-05
113 *63:17 *40:33 0.00030549
114 *63:7 *40:51 6.77e-06
115 *63:17 *40:52 9.68e-06
116 *63:19 *40:52 1.167e-05
117 *63:20 *40:61 6.956e-05
118 *63:19 *40:61 1.093e-05
119 *63:21 *40:61 1.154e-05
120 *63:22 *40:61 5.603e-05
121 *63:20 *40:68 1.965e-05
122 *63:21 *40:68 5.498e-05
123 *63:17 *40:80 7.1300094e-06

*RES
1 *526:A2 *63:61 6.98338
2 *63:60 *63:61 1.24693
3 *63:60 *63:20 2.80864
4 *63:22 *63:20 7.29236
5 *63:21 *63:22 2.02406
6 *63:19 *63:21 0.518912
7 *63:18 *63:19 0.252973
8 *63:18 *63:17 7.66395
9 *63:16 *63:17 6.84655
10 *63:16 *63:15 6.84655
11 *63:14 *63:15 6.84655
12 *63:14 *63:13 6.84655
13 *63:12 *63:13 6.84655
14 *63:12 *63:8 6.84655
15 *63:10 *63:8 3.0972
16 *63:10 *63:11 0.278905
17 *63:7 *63:11 7.05814
18 *63:7 *63:9 0.278905
19 *63:9 *63:29 3.48562
20 *63:30 *63:29 9.41739
21 *63:28 *63:30 0.252973
22 *63:28 *63:27 4.27544
23 *63:26 *63:27 6.84655
24 *63:26 *63:25 6.84655
25 *63:24 *63:25 3.52397
26 *63:31 *63:24 7.29236
27 *63:53 *63:31 4.89973
28 *63:38 *63:53 0.181799
29 *63:38 *63:49 3.53307
30 *63:49 *63:5 0.20773
31 *63:5 *63:59 2.71456
32 *63:59 *63:6 15.3365
33 *63:6 *63:37 8.60605
34 *63:37 *63:43 0.126073
35 *63:51 *63:43 1.01686
36 *436:Z *63:51 6.98338
37 *63:21 *63:42 17.9225
38 *63:36 *63:42 5.62389
39 *63:36 *63:41 5.62389
40 *63:35 *63:41 5.62389
41 *63:35 *63:40 5.62389
42 *63:58 *63:40 4.80511
43 *63:48 *63:58 6.98338
44 *63:56 *63:48 9.51339
45 *416 *63:56 6.23467
46 *63:48 *63:23 5.50996
47 *63:32 *63:23 6.84655
48 *63:32 *63:44 6.84655
49 *63:33 *63:44 6.84655
50 *63:33 *63:45 6.84655
51 *63:34 *63:45 6.84655
52 *63:34 *63:46 6.84655
53 *63:52 *63:46 18.0794411
54 *63 *63:52 6.23467
55 *63:60 *63:57 7.47664
56 *63:54 *63:57 0.531878
57 *63:54 *63:47 2.96699
58 *63:39 *63:47 6.36819
59 *63:39 *63:50 0.505946
60 *63:50 *63:55 0.518912
61 *63:62 *63:55 8.23032
62 *529:I0 *63:62 6.98338
*END

*D_NET *64 0.0154253

*CONN
*P *64 O *C 889.56 0 *L 0.005
*I *529:Z O *C 836.92 133.28 *L 0 *D CKMUX2D1BWP7T
*I *527:A1 I *C 825.16 132.16 *L 0.00651 *D CKXOR2D1BWP7T

*CAP
1 *64 0.00219747
2 *64:3 0.00160102
3 *64:5 0.000634109
4 *64:6 0.000176274
5 *64:7 0.00021688
6 *64:8 0.000583813
7 *64:9 0.00017956
8 *64:10 0.000778763
9 *64:11 0.000239815
10 *64:12 0.00101466
11 *64:13 0.00101466
12 *64:14 0.00107964
13 *64:15 0.00109007
14 *64:16 0.00101466
15 *64:17 0.0010226
16 *64:20 0.000174497
17 *64:21 0.000102304
18 *64:22 5.7439e-05
19 *64:23 7.41711e-05
20 *64:24 1.073e-06
21 *64:3 *85:4 0.00098425
22 *64:3 *86:4 0.00118755

*RES
1 *64:18 *64:6 2.29385
2 *64:10 *64:6 3.70702
3 *64:10 *64:24 0.233816
4 *64:23 *64:24 0.610481
5 *64:22 *64:23 0.636423
6 *64:21 *64:22 0.207873
7 *64:8 *64:21 3.09149
8 *64:8 *64:9 0.233816
9 *64:9 *64:11 7.59395
10 *64:11 *64:19 0.415578
11 *527:A1 *64:19 6.98347
12 *64:20 *64:23 6.98347
13 *529:Z *64:20 6.98347
14 *64:3 *64:18 0.649394
15 *64:3 *64:7 8.92795
16 *64:7 *64:4 10.9276743
17 *64:4 *64:5 2.80865
18 *64:14 *64:5 5.62387
19 *64:14 *64:17 5.62387
20 *64:13 *64:17 5.62387
21 *64:13 *64:16 5.62387
22 *64:12 *64:16 5.62387
23 *64:12 *64:15 5.62387
24 *64 *64:15 11.0398655
*END

*D_NET *65 0.0135164

*CONN
*P *65 O *C 844.76 0 *L 0.005
*I *527:Z O *C 821.24 133.28 *L 0 *D CKXOR2D1BWP7T
*I *526:A1 I *C 813.4 132.16 *L 0.00651 *D CKXOR2D1BWP7T

*CAP
1 *65 0.00219747
2 *65:3 0.00161087
3 *65:4 0.000162291
4 *65:5 7.86978e-05
5 *65:6 0.000796166
6 *65:8 0.00101466
7 *65:9 0.00101466
8 *65:10 0.0010949
9 *65:11 0.00101466
10 *65:12 0.0020844
11 *65:13 0.000332932
12 *65:14 0.000452269
13 *65:16 0.00021745
14 *65:17 0.000104148
15 *65:18 8.40964e-05
16 *65:19 7.67195e-05
17 *65:20 7.7759e-05
18 *65:21 0.000379305
19 *65:22 1.45526e-05
20 *65:3 *40:17 0.00070844

*RES
1 *65:8 *65:10 5.62373
2 *65 *65:10 11.0399
3 *65:8 *65:11 5.62373
4 *65:9 *65:11 5.62373
5 *65:9 *65:12 5.62373
6 *65:20 *65:12 17.922411
7 *65:7 *65:20 0.519054
8 *65:17 *65:7 0.252964
9 *65:3 *65:17 9.58828
10 *65:3 *65:15 0.278944
11 *65:4 *65:15 0.493074
12 *65:5 *65:4 7.29219
13 *65:19 *65:5 0.327622
14 *65:6 *65:19 0.18186
15 *65:6 *65:18 2.70165
16 *65:18 *65:21 0.20784
17 *65:21 *65:22 0.636375
18 *527:Z *65:22 6.98344
19 *527:Z *65:13 1.32115
20 *65:14 *65:13 1.71496
21 *65:16 *65:14 7.37314
22 *526:A1 *65:16 6.98344
*END

*D_NET *66 0.0199956

*CONN
*P *66 O *C 756.28 0 *L 0.005
*I *525:Z O *C 771.96 132.72 *L 0 *D CKAN2D1BWP7T
*I *524:A1 I *C 672.84 143.36 *L 0.00339 *D OR2D1BWP7T

*CAP
1 *66 0.00211401
2 *66:3 0.00076262
3 *66:4 0.000174247
4 *66:5 0.00329086
5 *66:6 0.00208625
6 *66:7 0.000506572
7 *66:8 0.00101465
8 *66:9 0.00101465
9 *66:10 0.00123469
10 *66:11 0.000647627
11 *66:12 0.00106848
12 *66:13 0.00101465
13 *66:14 0.00102263
14 *66:15 0.000512347
15 *66:16 0.00106713
16 *66:17 5.95554e-05
17 *66:18 0.000489047
18 *66:19 7.33646e-05
19 *66:20 5.132e-05
20 *66:22 0.000252282
21 *66:11 *173:13 0.00066763
22 *66:3 *42:42 0.00087092

*RES
1 *66:11 *66:6 5.62377
2 *66:4 *66:6 10.9286
3 *66:4 *66:3 0.319162
4 *66:7 *66:3 12.2756
5 *66:7 *66:21 1.24689
6 *525:Z *66:21 6.98337
7 *66:4 *66:15 9.37639
8 *66:10 *66:15 5.62377
9 *66:10 *66:14 5.62377
10 *66:9 *66:14 5.62377
11 *66:9 *66:13 5.62377
12 *66:8 *66:13 5.62377
13 *66:8 *66:12 5.62377
14 *66:19 *66:12 0.24605
15 *66:17 *66:19 0.207854
16 *66 *66:17 10.7939
17 *66:11 *66:16 5.62377
18 *66:5 *66:16 15.3572788
19 *66:5 *66:22 4.79282
20 *66:18 *66:22 0.59755
21 *66:18 *66:20 1.05216
22 *524:A1 *66:20 6.98337
*END

*D_NET *67 0.0128084

*CONN
*P *67 O *C 711.48 0 *L 0.005
*I *716:A2 I *C 691.32 132.16 *L 0.00529 *D XOR2D1BWP7T
*I *562:Q O *C 688.52 134.4 *L 0 *D DFKCNQD1BWP7T

*CAP
1 *67 0.00202978
2 *67:3 0.000145632
3 *67:4 0.000970739
4 *67:6 0.000479423
5 *67:7 9.50545e-05
6 *67:8 0.00101466
7 *67:9 0.00101466
8 *67:10 0.00123466
9 *67:11 0.00117488
10 *67:12 0.00101466
11 *67:13 0.00102262
12 *67:14 0.00066916
13 *67:15 5.16001e-05
14 *67:16 5.79804e-05
15 *67:17 0.000429402
16 *67:19 0.000871875
17 *67:3 *42:18 0.00053161

*RES
1 *67:10 *67:13 5.62387
2 *67:9 *67:13 5.62387
3 *67:9 *67:12 5.62387
4 *67:8 *67:12 5.62387
5 *67:8 *67:11 5.62387
6 *67 *67:11 11.0398655
7 *67:10 *67:14 5.62387
8 *67:15 *67:14 9.16866779
9 *67:3 *67:15 0.493068
10 *67:3 *67:5 0.278961
11 *67:5 *67:4 5.98504
12 *67:6 *67:4 2.11108
13 *67:16 *67:6 0.253019
14 *67:7 *67:16 0.493068
15 *67:19 *67:7 8.85383
16 *716:A2 *67:19 6.98347
17 *67:19 *67:20 0.844296
18 *67:17 *67:20 1.01326
19 *67:17 *67:18 0.220844
20 *562:Q *67:18 6.98347
*END

*D_NET *68 0.0121058

*CONN
*P *68 O *C 667.24 0 *L 0.005
*I *720:A I *C 672.28 132.16 *L 0.0143 *D HA1D1BWP7T
*I *561:Q O *C 679 141.12 *L 0 *D DFKCNQD1BWP7T

*CAP
1 *68 0.00198016
2 *68:3 0.00101466
3 *68:4 0.00101466
4 *68:5 0.00125771
5 *68:6 0.00109283
6 *68:7 0.00101466
7 *68:8 0.00102227
8 *68:9 0.00104282
9 *68:10 5.95242e-05
10 *68:11 0.000712416
11 *68:12 7.33628e-05
12 *68:13 0.000236435
13 *68:14 0.000523118
14 *68:15 0.000191384
15 *68:16 0.000186368
16 *68:17 0.00068338

*RES
1 *68:16 *68:17 0.415706
2 *68:17 *68:11 8.65899563
3 *68:11 *561:Q 2.52997
4 *68:15 *68:16 1.02609
5 *720:A *68:15 6.98349
6 *68:14 *68:15 0.220699
7 *68:13 *68:14 1.66266
8 *68:13 *68:9 3.83474
9 *68:5 *68:9 5.62388
10 *68:5 *68:8 5.62388
11 *68:4 *68:8 5.62388
12 *68:4 *68:7 5.62388
13 *68:3 *68:7 5.62388
14 *68:3 *68:6 5.62388
15 *68:12 *68:6 0.246063
16 *68:10 *68:12 0.207853
17 *68 *68:10 10.7938509
*END

*D_NET *69 0.0138487

*CONN
*P *69 O *C 622.44 0 *L 0.005
*I *731:A2 I *C 629.72 132.72 *L 0.00493 *D AN3XD1BWP7T
*I *718:A2 I *C 629.16 147.84 *L 0.00339 *D CKXOR2D1BWP7T
*I *560:Q O *C 629.72 134.4 *L 0 *D DFKCNQD1BWP7T

*CAP
1 *69 0.000105606
2 *69:4 0.00101466
3 *69:5 0.00101466
4 *69:6 0.00125195
5 *69:7 0.000401291
6 *69:8 0.00117489
7 *69:9 0.00101466
8 *69:10 0.00103625
9 *69:11 0.000769881
10 *69:12 0.00201599
11 *69:13 0.000312019
12 *69:14 7.2783e-05
13 *69:15 0.000316018
14 *69:16 0.000753393
15 *69:18 0.000497822
16 *69:19 7.83509e-05
17 *69:20 0.000295623
18 *69:21 0.000506312
19 *69:22 0.000213704
20 *69:23 0.000207582
21 *69:24 2.24563e-06
22 *69:25 0.000353794
23 *69:10 *70:4 0.00043923

*RES
1 *69:20 *69:13 7.6199
2 *69:7 *69:13 1.77102
3 *69:15 *69:7 7.6199
4 *69:15 *69:17 0.181976
5 *69:16 *69:17 2.31189
6 *69:14 *69:16 0.20778
7 *69:14 *69:11 2.79559
8 *69:6 *69:11 5.62389
9 *69:6 *69:10 5.62389
10 *69:5 *69:10 5.62389
11 *69:5 *69:9 5.62389
12 *69:4 *69:9 5.62389
13 *69:4 *69:8 5.62389
14 *69:12 *69:8 11.0528212
15 *69 *69:12 0.402743
16 *69:13 *560:Q 1.01208
17 *560:Q *69:26 6.98357
18 *69:25 *69:26 0.831289
19 *731:A2 *69:25 6.98357
20 *69:18 *69:20 0.181976
21 *69:18 *69:19 1.66258
22 *69:19 *69:21 0.20778
23 *69:21 *69:22 1.4548
24 *69:22 *69:23 0.623509
25 *69:23 *69:24 0.428546
26 *718:A2 *69:24 6.98357
*END

*D_NET *70 0.0168472

*CONN
*P *70 O *C 578.2 0 *L 0.005
*I *731:A3 I *C 630.28 132.16 *L 0.00489 *D AN3XD1BWP7T
*I *722:A I *C 629.72 143.36 *L 0.00803 *D HA1D0BWP7T
*I *559:Q O *C 629.72 150.08 *L 0 *D DFKCNQD1BWP7T

*CAP
1 *70 0.00202977
2 *70:4 0.00203681
3 *70:5 0.000872959
4 *70:6 0.00101466
5 *70:7 0.00101466
6 *70:8 0.00244057
7 *70:9 0.0022112
8 *70:10 0.00117487
9 *70:11 0.00101466
10 *70:12 0.000188177
11 *70:13 0.00113346
12 *70:14 0.000697742
13 *70:16 0.000557642
14 *70:17 2.08548e-05
15 *70:4 *69:10 0.00043923

*RES
1 *70:16 *70:13 4.05558
2 *70:13 *70:9 17.4755898
3 *70:9 *70:4 10.8972
4 *70:8 *70:4 12.632
5 *70:12 *70:8 7.73917
6 *70:7 *70:12 5.62378
7 *70:7 *70:11 5.62378
8 *70:6 *70:11 5.62378
9 *70:6 *70:10 5.62378
10 *70 *70:10 11.0398
11 *731:A3 *70:16 6.98346
12 *70:16 *70:17 2.09112
13 *70:14 *70:17 0.18186
14 *70:14 *70:5 2.09112
15 *722:A *70:5 6.98346
16 *70:5 *70:15 2.70176
17 *559:Q *70:15 6.98346
*END

*D_NET *71 0.016688

*CONN
*P *71 O *C 533.96 0 *L 0.005
*I *735:A2 I *C 487.48 134.96 *L 0.00485 *D AN3D2BWP7T
*I *721:A2 I *C 487.48 132.16 *L 0.00339 *D CKXOR2D1BWP7T
*I *558:Q O *C 502.04 134.4 *L 0 *D DFKCNQD1BWP7T

*CAP
1 *71 0.00202978
2 *71:4 0.00101466
3 *71:5 0.00101466
4 *71:6 0.00119272
5 *71:7 0.000131943
6 *71:8 0.000835451
7 *71:9 0.00101466
8 *71:10 0.00102228
9 *71:11 0.000652063
10 *71:12 0.000309477
11 *71:13 0.00115385
12 *71:14 0.000145602
13 *71:15 0.000435968
14 *71:16 0.000292163
15 *71:17 6.72102e-06
16 *71:18 0.00103823
17 *71:19 0.000169357
18 *71:20 0.000625055
19 *71:21 9.82756e-05
20 *71:22 1.84596e-05
21 *71:23 0.00050801
22 *71:24 0.000191781
23 *71:25 1.75304e-05
24 *71:12 *155:3 0.00144685
25 *71:15 *72:5 0.00048447
26 *71:12 *184:6 0.00083796

*RES
1 *71 *71:8 11.0399
2 *71:4 *71:8 5.62386
3 *71:4 *71:9 5.62386
4 *71:5 *71:9 5.62386
5 *71:5 *71:10 5.62386
6 *71:6 *71:10 5.62386
7 *71:6 *71:11 5.62386
8 *71:7 *71:11 2.1851
9 *71:13 *71:7 11.7504654
10 *71:13 *71:14 0.233804
11 *71:14 *71:12 2.15588
12 *71:25 *71:12 0.337976
13 *71:24 *71:25 0.207806
14 *71:23 *71:24 4.55919
15 *71:21 *71:23 0.610509
16 *71:21 *71:22 0.233804
17 *71:20 *71:22 4.15648
18 *71:19 *71:20 0.207806
19 *71:19 *71:15 7.59398
20 *71:15 *71:16 1.87044
21 *721:A2 *71:16 6.98347
22 *71:16 *71:17 1.03903
23 *735:A2 *71:17 6.98347
24 *71:23 *71:18 9.89294
25 *558:Q *71:18 6.98347
*END

*D_NET *72 0.0141713

*CONN
*P *72 O *C 489.16 0 *L 0.005
*I *735:A3 I *C 486.92 135.52 *L 0.0049 *D AN3D2BWP7T
*I *727:A I *C 488.6 143.36 *L 0.00803 *D HA1D0BWP7T
*I *557:Q O *C 485.8 150.08 *L 0 *D DFKCNQD1BWP7T

*CAP
1 *72 0.0019973
2 *72:4 0.000324882
3 *72:5 0.000555572
4 *72:6 0.000639659
5 *72:7 0.000124226
6 *72:8 0.00101464
7 *72:9 0.000786996
8 *72:10 1.66776e-05
9 *72:11 0.00123589
10 *72:12 0.00101464
11 *72:13 0.00229134
12 *72:14 0.000343483
13 *72:16 0.0001923
14 *72:17 4.16417e-05
15 *72:18 0.000345685
16 *72:19 5.15364e-05
17 *72:20 0.000425053
18 *72:21 0.000373306
19 *72:22 1.49644e-05
20 *72:23 0.000374775
21 *72:24 0.000336944
22 *72:25 3.53132e-06
23 *72:26 0.000124086
24 *72:27 0.000324008
25 *72:4 *23:119 0.00045556
26 *72:5 *71:15 0.00048447
27 *72:18 *200:3 0.00027814

*RES
1 *727:A *72:27 6.9835
2 *72:27 *72:4 8.23048496
3 *72:24 *72:4 7.74245
4 *72:23 *72:24 1.46767
5 *72:19 *72:23 0.207746
6 *72:18 *72:19 1.03907
7 *72:18 *72:22 0.181863
8 *72:21 *72:22 1.67559
9 *72:20 *72:21 1.46767
10 *72:17 *72:20 0.207746
11 *72:6 *72:17 2.07831
12 *72:6 *72:26 0.597525
13 *72:26 *72:5 1.78236
14 *72:10 *72:5 0.11392
15 *72:10 *72:14 0.181863
16 *72:14 *72:13 11.1597023
17 *72:9 *72:13 5.62378
18 *72:9 *72:12 5.62378
19 *72:8 *72:12 5.62378
20 *72:8 *72:11 5.62378
21 *72:7 *72:11 0.24606
22 *72:7 *72:15 0.181863
23 *72 *72:15 10.8198
24 *735:A3 *72:21 6.9835
25 *72:24 *72:25 1.46767
26 *72:16 *72:25 0.402721
27 *557:Q *72:16 6.9835
*END

*D_NET *73 0.0153366

*CONN
*P *73 O *C 444.92 0 *L 0.005
*I *739:A2 I *C 436.475 142.8 *L 0.00273 *D AN3D1BWP7T
*I *724:A2 I *C 444.92 151.2 *L 0.00339 *D CKXOR2D1BWP7T
*I *556:Q O *C 440.44 156.8 *L 0 *D DFKCNQD1BWP7T

*CAP
1 *73 0.00202975
2 *73:4 0.00101466
3 *73:5 0.00107018
4 *73:6 0.00125195
5 *73:7 0.000543605
6 *73:8 0.00127936
7 *73:9 0.00101079
8 *73:10 0.00102226
9 *73:11 0.00284705
10 *73:12 0.00033751
11 *73:13 0.000936766
12 *73:14 0.00033208
13 *73:15 0.000277776
14 *73:16 0.000336945
15 *73:17 1.17297e-06
16 *73:18 0.000425048
17 *73:7 *74:9 0.00061969

*RES
1 *73:4 *73:9 5.62384
2 *73:5 *73:9 5.62384
3 *73:5 *73:10 5.62384
4 *73:6 *73:10 5.62384
5 *73:6 *73:11 5.62384
6 *73:18 *73:11 9.87465
7 *73:13 *73:18 6.98344
8 *73:15 *73:13 11.2845249
9 *73:14 *73:15 0.844239
10 *73:14 *73:17 0.389662
11 *73:16 *73:17 1.05207
12 *739:A2 *73:16 6.98344
13 *73:15 *73:12 1.3732
14 *73:12 *73:7 8.10421
15 *73:7 *556:Q 2.27702
16 *73:18 *73:19 1.24699
17 *724:A2 *73:19 6.98344
18 *73:4 *73:8 5.62384
19 *73 *73:8 11.0398
*END

*D_NET *74 0.0180286

*CONN
*P *74 O *C 400.68 0 *L 0.005
*I *739:A3 I *C 437.07 143.36 *L 0.00276 *D AN3D1BWP7T
*I *729:A I *C 436.52 151.2 *L 0.00803 *D HA1D0BWP7T
*I *555:Q O *C 438.2 157.92 *L 0 *D DFKCNQD1BWP7T

*CAP
1 *74 0.00202981
2 *74:4 0.000674757
3 *74:5 0.00226349
4 *74:6 5.12999e-05
5 *74:7 0.000158722
6 *74:8 8.29103e-05
7 *74:9 0.000691857
8 *74:10 0.000407051
9 *74:11 0.00101466
10 *74:12 0.00101466
11 *74:13 0.00103551
12 *74:14 0.001285
13 *74:15 0.00101466
14 *74:16 0.00102225
15 *74:17 0.00292597
16 *74:19 3.69234e-05
17 *74:20 7.08555e-05
18 *74:21 9.68849e-06
19 *74:4 *31:9 0.00080358
20 *74:9 *73:7 0.00061969
21 *74:5 *120:4 0.00081528

*RES
1 *74:4 *74:5 15.7536278
2 *74:5 *74:17 10.9138
3 *74:13 *74:17 5.62396
4 *74:13 *74:16 5.62396
5 *74:12 *74:16 5.62396
6 *74:12 *74:15 5.62396
7 *74:11 *74:15 5.62396
8 *74:11 *74:14 5.62396
9 *74 *74:14 11.0398
10 *74:8 *74:4 11.514
11 *74:10 *74:8 1.46777
12 *74:10 *74:21 0.181969
13 *74:20 *74:21 1.25984
14 *739:A3 *74:20 6.98356
15 *74:8 *74:19 0.20793
16 *729:A *74:19 6.98356
17 *74:19 *74:6 0.1262
18 *74:7 *74:6 0.276438
19 *74:7 *74:9 0.623549
20 *74:9 *74:18 2.29901
21 *555:Q *74:18 6.98356
*END

*D_NET *75 0.0151788

*CONN
*P *75 O *C 355.88 0 *L 0.005
*I *761:A2 I *C 329.56 132.72 *L 0.00269 *D ND3D0BWP7T
*I *725:A2 I *C 332.36 143.36 *L 0.00339 *D CKXOR2D1BWP7T
*I *554:Q O *C 337.96 148.96 *L 0 *D DFKCNQD1BWP7T

*CAP
1 *75 0.00202978
2 *75:4 0.00101466
3 *75:5 0.00101466
4 *75:6 0.00147519
5 *75:7 0.00128502
6 *75:8 0.00101466
7 *75:9 0.000752662
8 *75:10 0.00193928
9 *75:11 0.000497139
10 *75:12 3.18087e-05
11 *75:13 0.00166356
12 *75:14 0.00059368
13 *75:15 0.000892347
14 *75:16 0.000161305
15 *75:17 0.000279279
16 *75:18 5.78565e-05
17 *75:19 0.000475861

*RES
1 *75:6 *75:12 7.8431
2 *75:12 *75:9 10.8564177
3 *75:5 *75:9 5.62387
4 *75:5 *75:8 5.62387
5 *75:4 *75:8 5.62387
6 *75:4 *75:7 5.62387
7 *75 *75:7 11.0398655
8 *75:13 *75:6 7.17837
9 *75:13 *75:10 7.38776
10 *75:14 *75:10 7.17281
11 *75:14 *75:16 2.2861
12 *554:Q *75:16 6.98347
13 *75:14 *75:11 9.04906
14 *75:19 *75:11 7.4479
15 *75:18 *75:19 0.220844
16 *75:17 *75:18 1.0392
17 *75:15 *75:17 2.68871
18 *761:A2 *75:15 6.98347
19 *75:19 *75:20 1.0392
20 *725:A2 *75:20 6.98347
*END

*D_NET *76 0.015077

*CONN
*P *76 O *C 311.64 0 *L 0.005
*I *761:A3 I *C 328.72 131.88 *L 0.00262 *D ND3D0BWP7T
*I *730:A I *C 323.4 143.36 *L 0.00803 *D HA1D0BWP7T
*I *553:Q O *C 317.24 156.8 *L 0 *D DFKCNQD1BWP7T

*CAP
1 *76 0.00192444
2 *76:4 0.00101465
3 *76:5 0.00101465
4 *76:6 0.00123797
5 *76:7 0.000662417
6 *76:8 0.00128502
7 *76:9 0.00101465
8 *76:10 0.00102261
9 *76:11 0.00109088
10 *76:12 0.000366652
11 *76:13 0.000507663
12 *76:14 7.70246e-05
13 *76:16 0.000679919
14 *76:18 0.000205526
15 *76:19 2.87778e-05
16 *76:20 0.000637428
17 *76:21 0.00155805
18 *76:23 0.000578081
19 *76:24 0.000170523

*RES
1 *76:6 *76:10 5.62385
2 *76:5 *76:10 5.62385
3 *76:5 *76:9 5.62385
4 *76:4 *76:9 5.62385
5 *76:4 *76:8 5.62385
6 *76:18 *76:8 0.856589
7 *76:13 *76:18 6.98345
8 *76:17 *76:13 9.51356
9 *76 *76:17 10.1833
10 *76:6 *76:11 5.62385
11 *76:11 *76:7 10.6233
12 *76:7 *76:14 2.51713
13 *76:14 *76:16 0.265963
14 *76:21 *76:16 11.3477755
15 *730:A *76:21 6.98345
16 *76:21 *76:22 0.623525
17 *76:23 *76:22 8.63308
18 *76:23 *76:24 0.233757
19 *76:24 *76:20 7.3862
20 *76:20 *76:12 2.20441
21 *76:15 *76:12 1.12082
22 *553:Q *76:15 6.98345
23 *76:16 *76:19 2.51713
24 *76:19 *761:A3 0.0761875
*END

*D_NET *77 0.013572

*CONN
*P *77 O *C 267.4 0 *L 0.005
*I *766:A1 I *C 267.96 132.16 *L 0.00283 *D CKAN2D1BWP7T
*I *728:A2 I *C 264.6 147.84 *L 0.00339 *D CKXOR2D1BWP7T
*I *552:Q O *C 261.8 156.8 *L 0 *D DFKCNQD1BWP7T

*CAP
1 *77 0.00198016
2 *766:A1 0.000102672
3 *77:4 0.00101466
4 *77:5 0.00101466
5 *77:6 0.00118565
6 *77:7 0.000497978
7 *77:8 0.00128545
8 *77:9 0.00101466
9 *77:10 0.00102227
10 *77:11 0.000827235
11 *77:13 5.95242e-05
12 *77:14 0.000546414
13 *77:15 7.33628e-05
14 *77:16 1.42616e-05
15 *77:18 5.62307e-05
16 *77:19 0.00177497
17 *77:21 0.00036349
18 *77:6 *78:6 0.00073837

*RES
1 *77:4 *77:9 5.62378
2 *77:5 *77:9 5.62378
3 *77:5 *77:10 5.62378
4 *77:6 *77:10 5.62378
5 *77:6 *77:11 5.62378
6 *77:20 *77:11 3.84767
7 *766:A1 *77:20 6.98345
8 *766:A1 *77:18 0.505998
9 *77:21 *77:18 8.02255
10 *77:21 *77:7 9.00745
11 *77:19 *77:7 11.763422
12 *728:A2 *77:19 6.98345
13 *77:19 *77:12 1.37314
14 *77:17 *77:12 0.30245
15 *77:14 *77:17 1.01325
16 *77:14 *77:16 0.844168
17 *552:Q *77:16 6.98345
18 *77:4 *77:8 5.62378
19 *77:15 *77:8 0.246088
20 *77:13 *77:15 0.207856
21 *77 *77:13 10.7938
*END

*D_NET *78 0.0167185

*CONN
*P *78 O *C 222.6 0 *L 0.005
*I *766:A2 I *C 266.84 132.16 *L 0.00317 *D CKAN2D1BWP7T
*I *733:A I *C 268.52 140 *L 0.00803 *D HA1D0BWP7T
*I *551:Q O *C 262.36 142.24 *L 0 *D DFKCNQD1BWP7T

*CAP
1 *78 0.00202979
2 *78:4 0.000998301
3 *78:6 0.000556758
4 *78:7 0.00141127
5 *78:8 0.000154954
6 *78:9 0.000733614
7 *78:10 2.83846e-05
8 *78:11 0.00101465
9 *78:12 0.00101465
10 *78:13 0.00128502
11 *78:14 0.00101465
12 *78:15 0.00211385
13 *78:17 0.0001117
14 *78:18 3.92224e-05
15 *78:19 0.00029949
16 *78:20 4.22222e-05
17 *78:21 0.000219788
18 *78:22 0.000397095
19 *78:23 0.000589498
20 *78:4 *56:26 0.00071157
21 *78:7 *57:31 0.00121368
22 *78:6 *77:6 0.00073837

*RES
1 *78:7 *78:4 8.9743
2 *78:5 *78:4 11.0128
3 *78:8 *78:5 7.61994
4 *78:16 *78:8 0.181917
5 *78:16 *78:6 0.113798
6 *78:10 *78:6 3.00337
7 *78:10 *78:19 0.207829
8 *78:19 *78:20 1.05197
9 *766:A2 *78:20 6.98337
10 *78:20 *78:21 0.194739
11 *78:21 *78:9 0.623486
12 *78:9 *78:22 2.7146
13 *733:A *78:22 6.98337
14 *78:23 *78:22 8.02251
15 *78:23 *78:18 9.06165
16 *78:17 *78:18 0.181917
17 *551:Q *78:17 6.98337
18 *78:15 *78:7 17.5067635
19 *78:12 *78:15 5.62393
20 *78:12 *78:14 5.62393
21 *78:11 *78:14 5.62393
22 *78:11 *78:13 5.62393
23 *78 *78:13 11.0398
*END

*D_NET *79 0.0185889

*CONN
*P *79 O *C 178.36 0 *L 0.005
*I *764:A1 I *C 216.44 132.16 *L 0.00251 *D AN4D0BWP7T
*I *715:A2 I *C 222.6 155.68 *L 0.00339 *D CKXOR2D1BWP7T
*I *550:Q O *C 217 157.92 *L 0 *D DFKCNQD1BWP7T

*CAP
1 *79 0.00166885
2 *79:4 0.000813811
3 *79:5 0.000813811
4 *79:6 0.000953716
5 *79:7 0.000206801
6 *79:8 0.000520887
7 *79:9 0.000133742
8 *79:10 0.0010953
9 *79:11 0.000813811
10 *79:12 0.000956619
11 *79:13 0.000570238
12 *79:14 0.000294834
13 *79:15 0.00083184
14 *79:16 3.81721e-05
15 *79:17 0.000237461
16 *79:18 0.000153427
17 *79:19 0.000716764
18 *79:20 5.94608e-05
19 *79:22 0.000374972
20 *79:23 0.000962043
21 *79:25 0.000252409
22 *79:26 0.000498962
23 *79:4 *103:7 0.00235474
24 *79:9 *125:4 0.00058489
25 *79:7 *80:4 0.00160008
26 *79:7 *82:4 0.0010813

*RES
1 *79:9 *79:19 6.98347
2 *79:17 *79:19 1.0392
3 *79:17 *79:16 8.15777
4 *79:8 *79:16 5.62387
5 *79:8 *79:15 5.62387
6 *79:15 *79:7 8.27788
7 *79:7 *79:13 3.01635
8 *79:6 *79:13 5.62387
9 *79:6 *79:12 5.62387
10 *79:5 *79:12 5.62387
11 *79:5 *79:11 5.62387
12 *79:4 *79:11 5.62387
13 *79:4 *79:10 5.62387
14 *79 *79:10 11.0398655
15 *79:19 *79:21 3.72791
16 *79:21 *79:23 0.103937
17 *79:23 *79:14 3.46428
18 *79:18 *79:14 1.10776
19 *79:18 *79:20 0.519515
20 *79:20 *79:22 0.220844
21 *79:26 *79:22 9.06169891
22 *79:26 *79:25 7.19134
23 *715:A2 *79:25 6.98347
24 *79:22 *79:24 1.2469
25 *550:Q *79:24 6.98347
26 *79:9 *764:A1 0.506039
*END

*D_NET *80 0.0226694

*CONN
*P *80 O *C 134.12 0 *L 0.005
*I *764:A2 I *C 217.56 132.16 *L 0.00271 *D AN4D0BWP7T
*I *717:A I *C 222.6 151.2 *L 0.00803 *D HA1D0BWP7T
*I *549:Q O *C 217 142.24 *L 0 *D DFKCNQD1BWP7T

*CAP
1 *80 0.00164766
2 *80:4 0.00159529
3 *80:5 8.07048e-06
4 *80:6 0.00120162
5 *80:7 0.000242366
6 *80:8 0.000242869
7 *80:9 0.000681314
8 *80:10 0.000809864
9 *80:11 0.000744319
10 *80:12 0.00103355
11 *80:13 0.00143423
12 *80:14 0.0010069
13 *80:15 0.000744319
14 *80:16 0.000639001
15 *80:17 0.00106747
16 *80:18 7.75621e-05
17 *80:19 0.000595984
18 *80:20 0.000546731
19 *80:21 4.62356e-05
20 *80:22 0.00098847
21 *80:23 0.000250663
22 *80:24 0.000422908
23 *80:25 7.00196e-05
24 *80:26 0.000444027
25 *80:27 2.38595e-05
26 *80:4 *79:7 0.00160008
27 *80:10 *127:4 0.00135631
28 *80:22 *142:7 0.000415109968
29 *80:10 *104:4 0.00169998
30 *80:4 *36:20 0.00103264

*RES
1 *80:13 *80:17 6.95908
2 *80:4 *80:17 3.43208
3 *80:6 *80:4 15.5517416
4 *80:5 *80:6 8.66812
5 *80:5 *80:19 0.207875
6 *80:19 *80:7 2.57946
7 *80:27 *80:7 1.36899
8 *80:8 *80:27 0.233741
9 *80:8 *80:23 7.5941
10 *80:23 *80:24 0.623389
11 *764:A2 *80:24 6.98352
12 *80:24 *80:25 0.844316
13 *80:22 *80:25 0.18201
14 *80:22 *80:9 3.13023
15 *549:Q *80:9 6.98352
16 *80:9 *80:20 9.0618
17 *80:20 *80:21 2.27714
18 *80:26 *80:21 8.02266
19 *717:A *80:26 6.98352
20 *80:18 *80:13 9.66289
21 *80:18 *80:12 13.4483
22 *80:12 *80:16 4.2885
23 *80:11 *80:16 5.62379
24 *80:11 *80:15 5.62379
25 *80:10 *80:15 5.62379
26 *80:10 *80:14 5.62379
27 *80 *80:14 11.0399
*END

*D_NET *81 0.0294784

*CONN
*P *81 O *C 89.32 0 *L 0.005
*I *764:A3 I *C 218.12 132.72 *L 0.00275 *D AN4D0BWP7T
*I *726:A I *C 239.96 147.84 *L 0.00803 *D HA1D0BWP7T
*I *548:Q O *C 233.8 156.8 *L 0 *D DFKCNQD1BWP7T

*CAP
1 *81 0.00153073
2 *81:4 0.00139762
3 *81:5 0.000964452
4 *81:7 7.80372e-05
5 *81:8 0.000684023
6 *81:9 0.000644829
7 *81:10 0.000799128
8 *81:11 0.00100365
9 *81:12 0.000861516
10 *81:13 0.00014206
11 *81:14 0.000782778
12 *81:15 0.00106781
13 *81:16 0.000929579
14 *81:17 0.00100365
15 *81:18 0.000900686
16 *81:19 0.000873779
17 *81:20 0.000369608
18 *81:21 0.000740968
19 *81:22 0.000756734
20 *81:23 0.000727771
21 *81:24 9.86151e-05
22 *81:26 0.0012006
23 *81:27 0.000583609
24 *81:29 0.000829259
25 *81:30 0.000300283
26 *81:31 0.000157429
27 *81:32 0.000418378
28 *81:33 0.000211688
29 *81:34 0.00014881
30 *81:35 0.000213487
31 *81:36 0.00080707
32 *81:37 0.000932523
33 *81:10 *105:4 0.00228059
34 *81:13 *130:5 0.00119191
35 *81:15 *127:10 0.00105877
36 *81:4 *36:14 0.00103795
37 *81:10 *128:4 0.00174807

*RES
1 *548:Q *81:25 6.98342
2 *81:25 *81:20 1.12073
3 *81:31 *81:20 0.541904
4 *81:29 *81:31 2.70171
5 *81:4 *81:29 12.8025379
6 *81:4 *81:37 6.98342
7 *81:37 *81:34 10.1008
8 *81:34 *81:23 2.21333
9 *81:30 *81:23 0.904085
10 *81:30 *81:35 6.98342
11 *81:35 *81:28 7.19127
12 *81:26 *81:28 5.61127
13 *81:33 *81:26 7.19127
14 *81:33 *81:9 9.07465
15 *81:6 *81:9 0.207854
16 *81:6 *81:7 2.64115
17 *81:5 *81:7 7.10063
18 *81:5 *81:24 0.23364
19 *81:24 *81:8 4.12133
20 *81:15 *81:8 5.62377
21 *81:15 *81:22 5.62377
22 *81:14 *81:22 5.62377
23 *81:14 *81:21 5.62377
24 *81:21 *81:13 7.57885
25 *81:13 *81:19 4.88691
26 *81:12 *81:19 5.62377
27 *81:12 *81:18 5.62377
28 *81:11 *81:18 5.62377
29 *81:11 *81:17 5.62377
30 *81:10 *81:17 5.62377
31 *81:10 *81:16 5.62377
32 *81 *81:16 11.0399
33 *81:34 *81:27 7.60698
34 *764:A3 *81:27 6.98342
35 *81:36 *81:31 9.06176
36 *81:36 *81:32 7.81483
37 *726:A *81:32 6.98342
*END

*D_NET *82 0.0292801

*CONN
*P *82 O *C 45.08 0 *L 0.005
*I *764:A4 I *C 218.68 132.16 *L 0.00277 *D AN4D0BWP7T
*I *737:A I *C 238.28 135.52 *L 0.00803 *D HA1D0BWP7T
*I *547:Q O *C 218.12 141.12 *L 0 *D DFKCNQD1BWP7T

*CAP
1 *82 0.00156699
2 *82:4 0.000508786
3 *82:5 0.000352773
4 *82:6 0.000189258
5 *82:7 0.000503851
6 *82:8 8.7443e-06
7 *82:9 0.000855181
8 *82:10 5.919e-05
9 *82:11 0.000410463
10 *82:12 0.000752097
11 *82:13 0.000738446
12 *82:14 0.000803408
13 *82:15 0.000841185
14 *82:16 0.000705807
15 *82:17 0.000665462
16 *82:18 0.000532912
17 *82:19 0.000706384
18 *82:20 0.000828717
19 *82:21 0.000738446
20 *82:22 0.000746383
21 *82:23 0.000395658
22 *82:24 0.000716398
23 *82:25 0.000505092
24 *82:26 0.000221811
25 *82:27 0.000450115
26 *82:28 0.000105942
27 *82:29 5.71698e-05
28 *82:30 0.000528381
29 *82:31 0.000101584
30 *82:32 0.000110963
31 *82:33 6.08927e-06
32 *82:34 0.000468037
33 *82:35 0.00034654
34 *82:37 0.000133473
35 *82:38 0.000342817
36 *82:39 0.00189128
37 *82:4 *79:7 0.0010813
38 *82:12 *106:4 0.00166951
39 *82:15 *130:11 0.00071821
40 *82:32 *142:7 0.000266089988
41 *82:16 *128:12 0.00214769
42 *82:34 *143:3 0.00072074
43 *82:16 *105:11 0.00180212
44 *82:12 *129:4 0.00197865

*RES
1 *82:19 *82:29 4.13064
2 *82:29 *82:30 0.207732
3 *82:30 *82:33 2.28613
4 *82:5 *82:33 0.233672
5 *82:5 *82:4 1.69723
6 *82:8 *82:4 3.26476
7 *82:8 *82:7 0.207732
8 *82:7 *82:31 2.90954
9 *82:9 *82:31 0.233672
10 *82:9 *82:6 5.04753
11 *82:10 *82:6 1.36902
12 *82:10 *82:38 0.207732
13 *82:38 *82:11 8.03553
14 *82:11 *82:34 1.45477
15 *764:A4 *82:34 6.98358
16 *82:34 *82:35 1.24704
17 *82:39 *82:35 14.0494766
18 *82:37 *82:39 6.98358
19 *737:A *82:37 6.98358
20 *82:35 *82:36 1.2599
21 *82:32 *82:36 0.182007
22 *547:Q *82:32 6.98358
23 *82:19 *82:28 0.233672
24 *82:28 *82:27 3.08211
25 *82:18 *82:27 5.62378
26 *82:18 *82:26 5.62378
27 *82:17 *82:26 5.62378
28 *82:17 *82:25 5.62378
29 *82:16 *82:25 5.62378
30 *82:16 *82:24 5.62378
31 *82:24 *82:15 12.7491
32 *82:15 *82:23 2.60083
33 *82:14 *82:23 5.62378
34 *82:14 *82:22 5.62378
35 *82:13 *82:22 5.62378
36 *82:13 *82:21 5.62378
37 *82:12 *82:21 5.62378
38 *82:12 *82:20 5.62378
39 *82 *82:20 11.0398
*END

*D_NET *83 0.068627

*CONN
*P *83 O *C 0.84 0 *L 0.005
*I *732:A2 I *C 746.76 143.36 *L 0.00339 *D CKXOR2D1BWP7T
*I *760:B1 I *C 751.8 140 *L 0.00375 *D IND3D1BWP7T
*I *546:Q O *C 747.32 134.4 *L 0 *D DFKCNQD1BWP7T

*CAP
1 *83 0.00159948
2 *546:Q 0.000332122
3 *83:4 0.000658775
4 *83:5 0.000699071
5 *83:6 0.000708044
6 *83:7 0.000417704
7 *83:8 0.000966473
8 *83:9 0.000301781
9 *83:10 0.00079915
10 *83:11 0.000340338
11 *83:12 0.000667609
12 *83:13 0.000725374
13 *83:14 0.0003771
14 *83:15 0.000732412
15 *83:16 0.000724532
16 *83:17 0.000376876
17 *83:18 0.000731262
18 *83:19 0.00045828
19 *83:20 0.000788326
20 *83:21 0.00183769
21 *83:22 0.000867459
22 *83:23 0.00082565
23 *83:24 0.000707063
24 *83:25 0.000798001
25 *83:26 0.0008003
26 *83:27 0.000990701
27 *83:28 0.00068104
28 *83:29 0.000744442
29 *83:30 0.000818303
30 *83:31 0.000932796
31 *83:32 0.000725991
32 *83:33 0.000766118
33 *83:34 0.000775932
34 *83:35 0.00106664
35 *83:36 0.000737151
36 *83:37 0.00175595
37 *83:38 0.00101465
38 *83:39 0.00123466
39 *83:40 0.000264262
40 *83:41 0.00101465
41 *83:42 0.00102261
42 *83:43 0.00139396
43 *83:44 0.00107152
44 *83:45 0.000840427
45 *83:46 0.000699155
46 *83:47 0.000846064
47 *83:48 0.000995412
48 *83:49 0.000797356
49 *83:50 0.000799795
50 *83:51 0.000918214
51 *83:52 0.000668814
52 *83:53 0.000800609
53 *83:54 0.000915073
54 *83:55 0.000708913
55 *83:56 0.000955986
56 *83:57 0.000889528
57 *83:58 0.00123918
58 *83:59 5.14559e-05
59 *83:60 0.000766791
60 *83:61 7.85158e-07
61 *83:62 0.000199823
62 *83:64 0.000646045
63 *83:65 2.20685e-05
64 *83:4 *58:8 0.00031644
65 *83:5 *58:8 1.8e-06
66 *83:6 *58:8 0.00012671
67 *83:7 *58:9 5.331e-05
68 *83:8 *58:12 5.213e-05
69 *83:9 *58:13 0.00026337
70 *83:10 *58:14 0.00012549
71 *83:11 *58:14 0.00013383
72 *83:12 *58:15 0.00022194
73 *83:13 *58:15 4.226e-05
74 *83:14 *58:16 0.00023052
75 *83:15 *58:16 2.88e-05
76 *83:16 *58:17 9.265e-05
77 *83:17 *58:17 0.00016667
78 *83:18 *58:18 4.499e-05
79 *83:5 *58:26 4.355e-05
80 *83:7 *58:31 0.0002642
81 *83:9 *58:35 0.00020527
82 *83:8 *58:35 5.405e-05
83 *83:10 *58:36 3.072e-05
84 *83:19 *58:36 0.00022944
85 *83:12 *58:37 7.5e-06
86 *83:11 *58:37 0.00025182
87 *83:14 *58:38 0.00014537
88 *83:13 *58:38 0.00011395
89 *83:16 *58:39 8.309e-05
90 *83:15 *58:39 0.00018111
91 *83:20 *58:40 0.00018062
92 *83:17 *58:40 0.00020921
93 *83:18 *58:40 5.77099935e-05
94 *83:21 *130:14 0.00074802
95 *83:22 *107:30 3.055e-05
96 *83:23 *107:31 0.00026859
97 *83:23 *107:32 0.00011639
98 *83:23 *107:33 3.571e-05
99 *83:24 *107:4 0.00013074
100 *83:24 *107:33 8.002e-05
101 *83:24 *107:5 0.00013301
102 *83:25 *107:5 5.959e-05
103 *83:25 *107:6 0.00019642
104 *83:4 *107:7 0.00016832
105 *83:4 *107:6 0.0001264
106 *83:4 *107:8 4.785e-05
107 *83:7 *107:9 7.205e-05
108 *83:7 *107:8 0.00018166
109 *83:7 *107:10 0.00011007
110 *83:26 *107:10 0.00010623
111 *83:26 *107:11 0.00015369
112 *83:27 *107:12 0.00013993
113 *83:27 *107:11 0.00014786
114 *83:27 *107:13 3.694e-05
115 *83:28 *107:14 0.00024895
116 *83:28 *107:13 0.00018166
117 *83:28 *107:15 3.032e-05
118 *83:9 *107:15 0.00013037
119 *83:9 *107:16 0.00015369
120 *83:10 *107:17 0.00016157
121 *83:10 *107:16 8.15e-06
122 *83:10 *107:18 6.202e-05
123 *83:12 *107:19 0.00028171
124 *83:12 *107:18 3.72e-06
125 *83:12 *107:20 1.046e-05
126 *83:14 *107:21 0.0002926
127 *83:14 *107:20 9.152e-05
128 *83:14 *107:22 1.094e-05
129 *83:16 *107:23 0.00012175
130 *83:16 *107:22 4.505e-05
131 *83:16 *107:24 8.719e-05
132 *83:20 *107:25 0.00016566
133 *83:20 *107:24 3.658e-05
134 *83:20 *107:29 5.817e-05
135 *83:29 *107:34 0.00030251
136 *83:29 *107:29 6.147e-05
137 *83:29 *107:35 3.958e-05
138 *83:30 *107:36 9.585e-05
139 *83:30 *107:35 9.059e-05
140 *83:30 *107:37 0.00014316
141 *83:31 *107:38 0.00011738
142 *83:31 *107:37 6.567e-05
143 *83:31 *107:39 0.00011972
144 *83:32 *107:40 0.0002377
145 *83:32 *107:39 0.00015949
146 *83:32 *107:41 7.703e-05
147 *83:33 *107:42 6.047e-05
148 *83:33 *107:41 0.00015519
149 *83:33 *107:43 0.00016085
150 *83:34 *107:44 0.00011974
151 *83:34 *107:43 0.00021808
152 *83:45 *107:30 3.055e-05
153 *83:45 *107:31 0.00010662
154 *83:45 *107:32 0.00016892
155 *83:46 *107:31 3.696e-05
156 *83:46 *107:4 8.002e-05
157 *83:46 *107:33 0.00024497
158 *83:47 *107:4 0.00013216
159 *83:47 *107:26 5.595e-05
160 *83:47 *107:5 0.00021365
161 *83:5 *107:26 0.00019517
162 *83:5 *107:7 9.717e-05
163 *83:5 *107:6 0.00011587
164 *83:6 *107:7 7.177e-05
165 *83:6 *107:9 0.00015369
166 *83:48 *107:9 0.00013321
167 *83:48 *107:27 7.925e-05
168 *83:48 *107:10 0.00010246
169 *83:49 *107:27 0.00018166
170 *83:49 *107:12 0.00012247
171 *83:49 *107:11 4.479e-05
172 *83:50 *107:12 0.00010673
173 *83:50 *107:14 0.00015369
174 *83:8 *107:14 3.584e-05
175 *83:8 *107:28 0.00010856
176 *83:8 *107:15 4.837e-05
177 *83:19 *107:28 0.00018166
178 *83:19 *107:17 1.59e-06
179 *83:19 *107:16 0.00029467
180 *83:11 *107:17 8.609e-05
181 *83:11 *107:19 3.23e-06
182 *83:11 *107:18 0.00031964
183 *83:13 *107:19 1.613e-05
184 *83:13 *107:21 7.48e-05
185 *83:13 *107:20 0.0001488
186 *83:15 *107:21 1.492e-05
187 *83:15 *107:23 2.318e-05
188 *83:15 *107:22 0.00022988
189 *83:17 *107:23 0.0001146
190 *83:17 *107:25 2.141e-05
191 *83:17 *107:24 0.00026555
192 *83:18 *107:25 6.182e-05
193 *83:18 *107:34 5.216e-05
194 *83:18 *107:29 0.00020349
195 *83:51 *107:34 4.9e-05
196 *83:51 *107:36 8.842e-05
197 *83:51 *107:35 0.00017533
198 *83:52 *107:36 0.00015292
199 *83:52 *107:38 5.591e-05
200 *83:52 *107:37 0.00027036
201 *83:53 *107:38 0.00012027
202 *83:53 *107:40 0.00015949
203 *83:53 *107:39 6.319e-05
204 *83:54 *107:40 7.703e-05
205 *83:54 *107:42 0.00014353
206 *83:54 *107:41 6.474e-05
207 *83:55 *107:42 0.00016086
208 *83:55 *107:43 0.00030815
209 *83 *107:45 4.463e-05
210 *83 *107 4.00005777e-06
211 *83:35 *108:4 0.00128615

*RES
1 *83:60 *83:61 2.09118
2 *732:A2 *83:61 6.98338
3 *83:60 *83:63 0.18183
4 *83:62 *83:63 0.428737
5 *546:Q *83:62 6.98338
6 *546:Q *83:59 1.51808
7 *83:64 *83:59 7.38614
8 *83:64 *83:65 1.25996
9 *760:B1 *83:65 6.98338
10 *83:62 *83:43 5.71822
11 *83:39 *83:43 5.62389
12 *83:39 *83:42 5.62389
13 *83:38 *83:42 5.62389
14 *83:38 *83:41 5.62389
15 *83:37 *83:41 9.81829
16 *83:58 *83:37 14.3791
17 *83:36 *83:58 5.62389
18 *83:36 *83:57 5.62389
19 *83:35 *83:57 5.62389
20 *83:35 *83:56 5.62389
21 *83:34 *83:56 5.62389
22 *83:34 *83:55 5.62389
23 *83:33 *83:55 5.62389
24 *83:33 *83:54 5.62389
25 *83:32 *83:54 5.62389
26 *83:32 *83:53 5.62389
27 *83:31 *83:53 5.62389
28 *83:31 *83:52 5.62389
29 *83:30 *83:52 5.62389
30 *83:30 *83:51 5.62389
31 *83:29 *83:51 5.62389
32 *83:29 *83:18 5.62389
33 *83:20 *83:18 5.62389
34 *83:20 *83:17 5.62389
35 *83:16 *83:17 5.62389
36 *83:16 *83:15 5.62389
37 *83:14 *83:15 5.62389
38 *83:14 *83:13 5.62389
39 *83:12 *83:13 5.62389
40 *83:12 *83:11 5.62389
41 *83:10 *83:11 5.62389
42 *83:10 *83:19 5.62389
43 *83:9 *83:19 5.62389
44 *83:9 *83:8 5.62389
45 *83:28 *83:8 5.62389
46 *83:28 *83:50 5.62389
47 *83:27 *83:50 5.62389
48 *83:27 *83:49 5.62389
49 *83:26 *83:49 5.62389
50 *83:26 *83:48 5.62389
51 *83:7 *83:48 5.62389
52 *83:7 *83:6 5.62389
53 *83:4 *83:6 5.62389
54 *83:4 *83:5 5.62389
55 *83:25 *83:5 5.62389
56 *83:25 *83:47 5.62389
57 *83:24 *83:47 5.62389
58 *83:24 *83:46 5.62389
59 *83:23 *83:46 5.62389
60 *83:23 *83:45 5.62389
61 *83:22 *83:45 5.62389
62 *83:22 *83:44 5.62389
63 *83:44 *83:21 17.9194412
64 *83:21 *83:40 1.42949
65 *83 *83:40 11.04
*END

*D_NET *84 0.0297881

*CONN
*P *84 O *C 999.88 0 *L 0.005
*I *760:B2 I *C 752.92 140 *L 0.00434 *D IND3D1BWP7T
*I *738:A I *C 753.48 147.84 *L 0.00803 *D HA1D0BWP7T
*I *545:Q O *C 756.28 156.8 *L 0 *D DFKCNQD1BWP7T

*CAP
1 *84 0.0016678
2 *84:4 0.000105869
3 *84:5 0.000805229
4 *84:6 0.000805229
5 *84:7 0.000805229
6 *84:8 0.000802212
7 *84:9 0.00125449
8 *84:10 0.00133046
9 *84:11 0.00124323
10 *84:12 0.000915983
11 *84:13 0.000884697
12 *84:14 0.000877623
13 *84:15 0.000877623
14 *84:17 0.000805602
15 *84:18 0.000805229
16 *84:19 0.000812222
17 *84:20 0.000805229
18 *84:21 0.000143161
19 *84:22 8.75301e-05
20 *84:23 0.00146874
21 *84:24 0.00129221
22 *84:25 0.0011758
23 *84:26 0.00114302
24 *84:27 0.000877623
25 *84:28 0.000877623
26 *84:29 0.000877623
27 *84:30 0.0017494
28 *84:33 0.000873779
29 *84:34 0.000127331
30 *84:35 0.000365469
31 *84:36 8.26183e-05
32 *84:37 0.000436556
33 *84:38 0.00032735
34 *84:9 *110:12 0.00156649
35 *84:23 *187:3 0.00071188

*RES
1 *84 *84:32 10.8198
2 *84:4 *84:32 0.181863
3 *84:4 *84:17 0.245932
4 *84:5 *84:17 5.6239
5 *84:5 *84:18 5.6239
6 *84:6 *84:18 5.6239
7 *84:6 *84:19 5.6239
8 *84:7 *84:19 5.6239
9 *84:7 *84:20 5.6239
10 *84:8 *84:20 5.6239
11 *84:8 *84:22 5.6239
12 *84:22 *84:16 7.27302
13 *84:16 *84:30 10.9344692
14 *84:15 *84:30 5.6239
15 *84:15 *84:29 5.6239
16 *84:14 *84:29 5.6239
17 *84:14 *84:28 5.6239
18 *84:13 *84:28 5.6239
19 *84:13 *84:27 5.6239
20 *84:12 *84:27 5.6239
21 *84:12 *84:26 5.6239
22 *84:11 *84:26 5.6239
23 *84:11 *84:25 5.6239
24 *84:10 *84:25 5.6239
25 *84:10 *84:24 5.6239
26 *84:9 *84:24 5.6239
27 *84:9 *84:23 5.6239
28 *84:38 *84:23 0.526902
29 *84:38 *84:31 8.0226593
30 *84:31 *84:21 0.289479
31 *84:37 *84:21 1.37315
32 *84:36 *84:37 0.220738
33 *84:34 *84:36 0.207891
34 *84:33 *84:34 2.68874
35 *760:B2 *84:33 6.98354
36 *738:A *84:37 6.98354
37 *84:38 *84:35 7.81477
38 *545:Q *84:35 6.98354
*END

*D_NET *85 0.0228667

*CONN
*P *85 O *C 956.76 0 *L 0.005
*I *768:A1 I *C 811.72 140 *L 0.00435 *D ND2D1BWP7T
*I *736:A2 I *C 810.04 155.68 *L 0.00339 *D CKXOR2D1BWP7T
*I *544:Q O *C 811.16 157.92 *L 0 *D DFKCNQD1BWP7T

*CAP
1 *85 0.000166735
2 *85:4 0.000760712
3 *85:5 0.000694056
4 *85:6 0.00074829
5 *85:7 0.000886934
6 *85:8 0.000971262
7 *85:9 0.000831671
8 *85:10 5.49919e-05
9 *85:11 0.000409571
10 *85:12 1.57236e-05
11 *85:14 0.00058161
12 *85:15 0.000556658
13 *85:16 0.00020741
14 *85:17 0.00177357
15 *85:19 0.00013997
16 *85:20 0.000877624
17 *85:22 0.000604776
18 *85:23 0.0011259
19 *85:24 0.00104466
20 *85:25 0.00113472
21 *85:26 0.000905607
22 *85:27 0.000180916
23 *85:28 0.00118468
24 *85:29 7.61281e-05
25 *85:30 0.00129853
26 *85:31 5.43695e-05
27 *85:32 5.77523e-05
28 *85:33 0.000179617
29 *85:34 2.85514e-05
30 *85:10 *40:10 0.00253919
31 *85:8 *42:25 0.00056826
32 *85:4 *64:3 0.00098425
33 *85:17 *108:8 0.001222

*RES
1 *85:25 *85:10 8.58413
2 *85:14 *85:10 5.62382
3 *85:14 *85:11 5.62382
4 *85:15 *85:11 5.62382
5 *85:15 *85:16 5.62382
6 *85:16 *85:21 8.96081
7 *85:21 *85:24 6.38753
8 *85:20 *85:24 5.62382
9 *85:20 *85:23 5.62382
10 *85:7 *85:23 5.62382
11 *85:7 *85:6 5.62382
12 *85:4 *85:6 5.62382
13 *85:4 *85:5 5.62382
14 *85:8 *85:5 5.62382
15 *85:8 *85:9 5.62382
16 *85:30 *85:9 9.43138981
17 *85:30 *85:32 2.50676
18 *85:26 *85:32 0.389732
19 *85:26 *85:28 2.50676
20 *85:19 *85:28 6.98351
21 *85:19 *768:A1 0.506063
22 *85:28 *85:22 4.2826
23 *85:31 *85:22 2.35478
24 *85:29 *85:31 0.207836
25 *85:27 *85:29 0.818294
26 *736:A2 *85:27 6.98351
27 *85:31 *85:33 0.207836
28 *85:33 *85:34 0.220726
29 *544:Q *85:34 6.98351
30 *85:12 *85:25 0.207836
31 *85:12 *85:13 2.66351
32 *85:17 *85:13 10.4293518
33 *85:17 *85:18 0.181896
34 *85 *85:18 0.636398
*END

*D_NET *86 0.0214778

*CONN
*P *86 O *C 913.08 0 *L 0.005
*I *768:A2 I *C 813.4 140 *L 0.00474 *D ND2D1BWP7T
*I *740:A I *C 801.08 140 *L 0.00803 *D HA1D0BWP7T
*I *543:Q O *C 802.76 133.28 *L 0 *D DFKCNQD1BWP7T

*CAP
1 *86 5.81873e-05
2 *86:4 0.000814266
3 *86:5 0.000935837
4 *86:6 0.000698769
5 *86:7 0.000635076
6 *86:8 0.000909022
7 *86:9 0.00108679
8 *86:10 4.05555e-05
9 *86:11 0.000443571
10 *86:12 0.000195919
11 *86:13 0.000362792
12 *86:14 0.000543026
13 *86:15 0.000617682
14 *86:16 0.000378383
15 *86:17 0.000443571
16 *86:18 0.00155518
17 *86:19 1.66114e-07
18 *86:20 0.000181823
19 *86:21 0.000417776
20 *86:22 0.00050164
21 *86:24 6.40724e-06
22 *86:25 0.000580591
23 *86:26 1.13669e-05
24 *86:27 0.00082848
25 *86:28 0.000292692
26 *86:29 1.9459e-06
27 *86:30 0.00019217
28 *86:31 0.000357168
29 *86:32 4.421e-05
30 *86:33 0.000362555
31 *86:34 0.000230518
32 *86:35 2.13575e-06
33 *86:36 0.000302564
34 *86:11 *41:5 0.00198635
35 *86:10 *87:17 0.00115054
36 *86:18 *109:15 0.00014812
37 *86:15 *109:15 0.00010482
38 *86:15 *109:10 0.00018492
39 *86:17 *109:10 0.00017804
40 *86:17 *109:11 0.00018492
41 *86:13 *109:12 0.00028662
42 *86:13 *109:11 7.141e-05
43 *86:13 *109:13 3.889e-05
44 *86:19 *109:13 8.076e-05
45 *86:16 *109:14 9.759e-05
46 *86:16 *109:15 0.00014699
47 *86:11 *109:14 0.00017804
48 *86:11 *109:16 0.00018492
49 *86:12 *109:16 0.00017804
50 *86:12 *109:12 7.417e-05
51 *86:12 *109:11 0.00021738
52 *86:14 *109:12 3.744e-05
53 *86:14 *109:13 0.00020823
54 *86:18 *109 0.00037711
55 *86:16 *109 0.00014212007
56 *86:4 *64:3 0.00118755

*RES
1 *543:Q *86:25 6.98357
2 *86:31 *86:25 7.59392
3 *86:30 *86:31 0.233753
4 *86:30 *86:32 0.597536
5 *86:32 *86:33 0.20778
6 *86:33 *86:35 1.66258
7 *86:34 *86:35 0.233753
8 *86:34 *86:36 0.818303
9 *86:36 *86:27 9.25667
10 *86:27 *86:28 0.20778
11 *86:28 *86:29 0.636495
12 *768:A2 *86:29 6.98357
13 *86:36 *86:9 2.03226
14 *86:10 *86:9 5.85208
15 *86:10 *86:21 0.20778
16 *86:21 *86:23 2.07831
17 *86:7 *86:23 0.233753
18 *86:7 *86:5 3.29143
19 *86:4 *86:5 5.62389
20 *86:4 *86:6 5.62389
21 *86:8 *86:6 5.62389
22 *86:8 *86:20 5.62389
23 *86:19 *86:20 0.801606
24 *86:14 *86:19 11.0389919
25 *86:13 *86:14 5.62389
26 *86:13 *86:12 5.62389
27 *86:17 *86:12 5.62389
28 *86:17 *86:11 5.62389
29 *86:15 *86:11 5.62389
30 *86:15 *86:16 5.62389
31 *86:18 *86:16 11.0528212
32 *86:18 *86 0.610523
33 *86:25 *86:26 1.67556
34 *86:22 *86:26 0.389756
35 *86:22 *86:24 1.05206
36 *740:A *86:24 6.98357
*END

*D_NET *87 0.0215197

*CONN
*P *87 O *C 869.96 0 *L 0.005
*I *763:A1 I *C 773.64 140 *L 0.00251 *D AN4D0BWP7T
*I *719:A2 I *C 783.16 140 *L 0.00339 *D CKXOR2D1BWP7T
*I *542:Q O *C 805.56 134.4 *L 0 *D DFKCNQD1BWP7T

*CAP
1 *87 5.81741e-05
2 *763:A1 0.000522101
3 *87:4 0.00110238
4 *87:5 4.74282e-05
5 *87:6 0.000211595
6 *87:7 0.000806353
7 *87:8 0.000377228
8 *87:9 0.000113344
9 *87:10 0.000294998
10 *87:11 0.000886996
11 *87:12 0.000563229
12 *87:13 6.34493e-05
13 *87:14 0.000377228
14 *87:15 0.00111139
15 *87:16 0.00146009
16 *87:17 0.0011837
17 *87:18 0.00108682
18 *87:19 0.000142627
19 *87:20 0.00160052
20 *87:21 0.00059173
21 *87:22 0.000232989
22 *87:23 0.000240951
23 *87:8 *42:36 0.00240024
24 *87:17 *86:10 0.00115054
25 *87:4 *88:7 0.00107224
26 *87:16 *110:19 0.00016043
27 *87:12 *110:19 0.00010179
28 *87:12 *110:20 0.0001992
29 *87:14 *110:20 0.0001729
30 *87:14 *110:21 0.0001992
31 *87:10 *110:22 0.00029384
32 *87:10 *110:21 6.935e-05
33 *87:10 *110:23 4.189e-05
34 *87:19 *110:23 4.482e-05
35 *87:13 *110:24 0.000106
36 *87:13 *110:19 0.00015057
37 *87:8 *110:24 0.0001729
38 *87:8 *110:25 0.0001992
39 *87:9 *110:25 0.0001729
40 *87:9 *110:22 7.989e-05
41 *87:9 *110:21 0.00022285
42 *87:11 *110:22 3.636e-05
43 *87:11 *110:26 2.668e-05
44 *87:11 *110:23 0.00018244
45 *87:16 *110 0.00038656
46 *87:13 *110 0.000137690134
47 *87:4 *190:5 0.00066398

*RES
1 *542:Q *87:21 6.98342
2 *87:15 *87:21 0.831222
3 *87:15 *87:18 11.7174
4 *87:17 *87:18 5.62393
5 *87:17 *87:20 5.62393
6 *87:19 *87:20 7.29461
7 *87:11 *87:19 11.8702
8 *87:10 *87:11 5.62393
9 *87:10 *87:9 5.62393
10 *87:14 *87:9 5.62393
11 *87:14 *87:8 5.62393
12 *87:12 *87:8 5.62393
13 *87:12 *87:13 5.62393
14 *87:16 *87:13 11.0528
15 *87:16 *87 0.610441
16 *87:21 *87:6 1.66265
17 *87:6 *87:4 13.497261
18 *87:7 *87:4 1.7992
19 *87:7 *87:23 7.39923
20 *719:A2 *87:23 6.98342
21 *87:7 *87:22 8.43826
22 *87:22 *87:5 7.39923
23 *763:A1 *87:5 2.53012
*END

*D_NET *88 0.0189862

*CONN
*P *88 O *C 826.28 0 *L 0.005
*I *763:A2 I *C 772.52 140 *L 0.00271 *D AN4D0BWP7T
*I *723:A I *C 780.92 143.36 *L 0.00803 *D HA1D0BWP7T
*I *541:Q O *C 806.68 148.96 *L 0 *D DFKCNQD1BWP7T

*CAP
1 *88 4.03054e-05
2 *541:Q 6.00988e-05
3 *88:5 0.000874832
4 *88:6 0.00132744
5 *88:7 0.0011753
6 *88:8 0.000318251
7 *88:9 0.00113634
8 *88:10 1.65893e-05
9 *88:11 0.000238539
10 *88:12 0.000665579
11 *88:13 0.000818386
12 *88:14 0.000516814
13 *88:15 0.00196242
14 *88:16 0.000696931
15 *88:17 5.81824e-05
16 *88:18 4.42581e-05
17 *88:20 0.00045429
18 *88:23 0.000249948
19 *88:24 1.50322e-05
20 *88:25 0.000498698
21 *88:26 0.000277497
22 *88:27 1.46729e-06
23 *88:4 *43:3 0.00083465
24 *88:7 *87:4 0.00107224
25 *88:10 *109:17 0.00140864
26 *88:6 *111:18 0.00020515
27 *88:6 *111:19 0.00046024
28 *88:4 *111:12 2.154e-05
29 *88:4 *111:18 0.00032696
30 *88:11 *111:13 0.0001992
31 *88:11 *111:14 0.0001729
32 *88:12 *111:16 0.00014785
33 *88:12 *111:14 7.989e-05
34 *88:12 *111:17 0.0001039
35 *88:10 *111:17 7.431e-05
36 *88:10 *111:20 3.905e-05
37 *88:5 *111:12 1.93e-06
38 *88:5 *111:18 0.00019189
39 *88:5 *111:19 0.00018193
40 *88:5 *111:21 0.00036937
41 *88:13 *111:12 1.021e-05
42 *88:13 *111:15 0.0001729
43 *88:14 *111:15 0.0001992
44 *88:14 *111:16 6.935e-05
45 *88:14 *111:14 0.00022285
46 *88:15 *111:16 0.00011688
47 *88:15 *111:17 0.00024907
48 *88:15 *111:22 8.223e-05
49 *88:16 *111:5 3.804e-05
50 *88:16 *111:23 1.785e-05
51 *88:16 *111:24 5.212e-05
52 *88:16 *111:20 5.15e-06
53 *88:16 *111:22 3.877e-05
54 *88:17 *111:12 4.667e-05
55 *88:19 *111:19 7.45e-06
56 *88:8 *111:5 2.504e-05
57 *88:24 *111:5 4.256e-05
58 *88:24 *111:7 3.366e-05
59 *88:25 *111:5 5.443e-05
60 *88:25 *111:7 4.642e-05
61 *88:25 *111:25 1.01e-06
62 *88:26 *111:5 7.8e-06
63 *88:26 *111:7 9.18e-06
64 *88:26 *111:24 3.194e-05
65 *88:27 *111:5 3.88e-06
66 *88 *111:19 5.99e-05
67 *541:Q *111:5 2.80007776e-06

*RES
1 *88:6 *88:19 0.181896
2 *88 *88:19 0.636511
3 *88:6 *88:5 10.4293
4 *88:4 *88:5 10.9765
5 *88:4 *88:17 0.207738
6 *88:17 *88:13 0.271214
7 *88:11 *88:13 5.62373
8 *88:11 *88:14 5.62373
9 *88:12 *88:14 5.62373
10 *88:12 *88:15 5.62373
11 *88:15 *88:10 16.4424133
12 *88:10 *88:16 2.9555
13 *88:26 *88:16 1.18797
14 *88:26 *88:27 0.233831
15 *88:25 *88:27 2.28612
16 *88:24 *88:25 0.207738
17 *88:24 *88:22 7.59398
18 *88:18 *88:22 6.98356
19 *541:Q *88:18 0.252898
20 *88:8 *88:22 1.66266
21 *88:8 *88:7 14.1207
22 *88:9 *88:7 2.63034
23 *88:9 *88:21 10.1009
24 *88:20 *88:21 0.831203
25 *763:A2 *88:20 6.98356
26 *88:9 *88:23 7.39904
27 *723:A *88:23 6.98356
*END

*D_NET *89 0.0145105

*CONN
*P *89 O *C 782.6 0 *L 0.005
*I *763:A3 I *C 771.96 140.56 *L 0.00275 *D AN4D0BWP7T
*I *734:A I *C 775.32 155.68 *L 0.00803 *D HA1D0BWP7T
*I *540:Q O *C 775.32 157.92 *L 0 *D DFKCNQD1BWP7T

*CAP
1 *89 0.000184363
2 *89:4 0.000259525
3 *89:5 0.00124482
4 *89:6 0.000688236
5 *89:7 0.000597308
6 *89:8 0.000648442
7 *89:9 0.000831191
8 *89:10 0.000597308
9 *89:11 0.000471886
10 *89:12 0.000237966
11 *89:13 3.80085e-05
12 *89:15 0.000127911
13 *89:17 0.00115617
14 *89:19 5.03361e-06
15 *89:20 0.000143733
16 *89:21 0.000491261
17 *89:22 0.000105877
18 *89:23 0.00116181
19 *89:24 0.000373114
20 *89:26 0.00066039
21 *89:27 0.000260247
22 *89:5 *112:15 0.00035101
23 *89:5 *112:17 0.00039356
24 *89:5 *112:19 5.21e-06
25 *89:6 *112:9 0.00013018
26 *89:6 *112:10 0.00019922
27 *89:7 *112:10 0.00022111
28 *89:7 *112:11 0.00019922
29 *89:8 *112:6 0.00016657
30 *89:8 *112:11 8.868e-05
31 *89:8 *112:12 0.00011986
32 *89:9 *112:4 0.00010601
33 *89:9 *112:9 0.00016952
34 *89:9 *112:19 1.272e-05
35 *89:10 *112:4 0.00022111
36 *89:10 *112:5 0.00019922
37 *89:11 *112:5 0.00022111
38 *89:11 *112:6 7.99e-05
39 *89:11 *112:11 0.00025174
40 *89:12 *112:6 0.00013215
41 *89:12 *112:8 4.165e-05
42 *89:12 *112:12 0.0001177
43 *89:12 *112:14 3.71e-06
44 *89:13 *112:19 1.226e-05
45 *89:14 *112:15 7.44e-06
46 *89:15 *112:19 5.59e-06
47 *89:16 *112:19 2.509e-05
48 *89:17 *112:8 1.177e-05
49 *89:17 *112:12 1.177e-05
50 *89:18 *112:14 1.792e-05
51 *89:19 *112:12 6.121e-05
52 *89:19 *112:14 3.84e-06
53 *89:20 *112:14 9.928e-05
54 *89 *112:15 5.97999697e-05
55 *89:4 *190:13 0.00047873

*RES
1 *89:13 *89:15 0.207868
2 *89:15 *89:16 0.649422
3 *89:22 *89:16 0.181902
4 *89:22 *89:9 0.246086
5 *89:6 *89:9 5.6238
6 *89:6 *89:10 5.6238
7 *89:7 *89:10 5.6238
8 *89:7 *89:11 5.6238
9 *89:8 *89:11 5.6238
10 *89:8 *89:12 5.6238
11 *89:19 *89:12 2.8216
12 *89:17 *89:19 0.181902
13 *89:17 *89:18 3.74089
14 *89:18 *89:20 0.207868
15 *89:20 *89:27 7.61992
16 *89:26 *89:27 2.49383
17 *89:23 *89:26 6.98348
18 *89:23 *89:21 4.07479
19 *89:24 *89:21 1.53647
20 *734:A *89:24 6.98348
21 *89:24 *89:25 1.03905
22 *540:Q *89:25 6.98348
23 *89:26 *89:4 8.23039055
24 *763:A3 *89:4 6.98348
25 *89:5 *89:13 9.55986786
26 *89:5 *89:14 0.181902
27 *89 *89:14 0.63644
*END

*D_NET *90 0.0163397

*CONN
*P *90 O *C 739.48 0 *L 0.005
*I *763:A4 I *C 771.4 140 *L 0.00277 *D AN4D0BWP7T
*I *744:A I *C 771.4 151.2 *L 0.00803 *D HA1D0BWP7T
*I *539:Q O *C 749.56 150.08 *L 0 *D DFKCNQD1BWP7T

*CAP
1 *90 0.00135533
2 *90:4 0.00111173
3 *90:5 9.89712e-05
4 *90:6 0.0013351
5 *90:7 0.00259963
6 *90:8 0.00136247
7 *90:9 0.00066515
8 *90:10 0.000586925
9 *90:11 0.000635637
10 *90:12 0.000912479
11 *90:13 0.000586925
12 *90:14 0.000479901
13 *90:15 6.9022e-06
14 *90:16 0.000162479
15 *90:17 5.75183e-05
16 *90:19 6.91013e-05
17 *90:20 6.46189e-05
18 *90:21 7.88993e-05
19 *90:22 0.000177712
20 *90:4 *29:23 0.00053313
21 *90:9 *113:12 0.00011205
22 *90:9 *113:13 0.00022111
23 *90:10 *113:13 0.00019031
24 *90:10 *113:14 0.00022111
25 *90:11 *113:15 0.00016302
26 *90:11 *113:14 7.633e-05
27 *90:11 *113:16 0.00013215
28 *90:12 *113:17 0.0001189
29 *90:12 *113:12 0.00016174
30 *90:13 *113:17 0.00019031
31 *90:13 *113:18 0.00022111
32 *90:14 *113:18 0.00019031
33 *90:14 *113:15 8.868e-05
34 *90:14 *113:14 0.00024641
35 *90:7 *113:15 0.0001145
36 *90:7 *113:16 0.00017934
37 *90:7 *113:4 8.815e-05
38 *90:7 *113:19 4.174e-05
39 *90:15 *113:20 0.00033554
40 *90:17 *113:20 4.6e-06
41 *90 *113:12 0.00032438
42 *90 *113:20 3.72799322e-05

*RES
1 *90:9 *90:12 5.62383
2 *90:17 *90:12 0.246148
3 *90:15 *90:17 0.207748
4 *90 *90:15 10.7938
5 *90:9 *90:13 5.62383
6 *90:10 *90:13 5.62383
7 *90:10 *90:14 5.62383
8 *90:11 *90:14 5.62383
9 *90:11 *90:7 5.62383
10 *90:8 *90:7 18.1049995
11 *90:8 *90:5 3.53309
12 *90:16 *90:5 6.98359
13 *539:Q *90:16 6.98359
14 *90:5 *90:21 1.02603
15 *90:19 *90:21 0.233716
16 *90:19 *90:4 1.96891
17 *90:20 *90:4 4.44779
18 *90:20 *90:22 0.207748
19 *90:22 *90:18 7.61981
20 *744:A *90:18 6.98359
21 *90:6 *90:18 4.15634
22 *763:A4 *90:6 6.98359
*END

*D_NET *91 0.0164134

*CONN
*P *91 O *C 695.8 0 *L 0.005
*I *767:A1 I *C 658.84 143.36 *L 0.00435 *D ND2D1BWP7T
*I *743:A2 I *C 662.2 151.2 *L 0.00339 *D CKXOR2D1BWP7T
*I *538:Q O *C 659.96 148.96 *L 0 *D DFKCNQD1BWP7T

*CAP
1 *91 5.81735e-05
2 *767:A1 0.00014656
3 *91:4 0.00234321
4 *91:5 0.000539938
5 *91:6 8.46681e-05
6 *91:7 0.00170942
7 *91:8 0.000570794
8 *91:9 0.000564966
9 *91:10 0.000477903
10 *91:11 0.000448583
11 *91:12 0.000678167
12 *91:13 0.00046714
13 *91:14 0.000323298
14 *91:15 5.42047e-05
15 *91:16 5.14158e-05
16 *91:17 0.000221574
17 *91:18 0.00121635
18 *91:19 0.000360912
19 *91:20 7.62656e-05
20 *91:21 0.000134797
21 *91:22 8.95665e-05
22 *91:23 0.000453124
23 *91:24 0.000314216
24 *91:25 2.65303e-05
25 *91:4 *32:14 0.00072874
26 *91:8 *108:12 0.00106892
27 *91:7 *114:8 0.00038708
28 *91:8 *114:8 0.00011362
29 *91:8 *114:9 0.00018625
30 *91:9 *114:9 0.0001861
31 *91:9 *114:10 0.00018625
32 *91:10 *114:11 0.00014689
33 *91:10 *114:10 0.00011249
34 *91:10 *114:12 0.00011405
35 *91:11 *114:13 0.00010243
36 *91:11 *114:8 0.00016002
37 *91:12 *114:13 0.0001861
38 *91:12 *114:14 0.00018625
39 *91:13 *114:14 0.0001861
40 *91:13 *114:11 0.0001167
41 *91:13 *114:10 0.00014176
42 *91:14 *114:11 0.00010711
43 *91:14 *114:15 3.59e-06
44 *91:14 *114:12 9.871e-05
45 *91:16 *114:12 2.93e-05
46 *91:18 *114:15 1.91e-05
47 *91:18 *114:12 2.43e-06
48 *91:11 *114 0.000431639922

*RES
1 *91:9 *91:12 5.62389
2 *91:8 *91:12 5.62389
3 *91:8 *91:11 5.62389
4 *91:7 *91:11 11.0528212
5 *91:7 *91 0.610523
6 *91:9 *91:13 5.62389
7 *91:10 *91:13 5.62389
8 *91:10 *91:14 5.62389
9 *91:16 *91:14 2.79559
10 *91:16 *91:18 0.20778
11 *91:18 *91:20 4.59798
12 *91:17 *91:20 0.181976
13 *91:17 *91:6 7.6199
14 *91:6 *91:4 10.1477
15 *91:5 *91:4 9.51302242
16 *91:5 *91:19 0.20778
17 *91:15 *91:19 6.98357
18 *767:A1 *91:15 0.505958
19 *91:19 *91:21 1.24702
20 *538:Q *91:21 6.98357
21 *91:21 *91:22 0.402743
22 *91:22 *91:23 0.20778
23 *91:23 *91:24 1.24702
24 *91:24 *91:25 0.636495
25 *743:A2 *91:25 6.98357
*END

*D_NET *92 0.0136687

*CONN
*P *92 O *C 652.12 0 *L 0.005
*I *767:A2 I *C 657.16 143.36 *L 0.00474 *D ND2D1BWP7T
*I *748:A I *C 656.6 147.84 *L 0.00803 *D HA1D0BWP7T
*I *537:Q O *C 651 133.28 *L 0 *D DFKCNQD1BWP7T

*CAP
1 *92:4 0.00159642
2 *92:5 5.48096e-06
3 *92:6 0.000190396
4 *92:7 0.000876831
5 *92:8 0.00120104
6 *92:9 0.000767285
7 *92:10 0.000803849
8 *92:11 0.00132303
9 *92:12 0.000172784
10 *92:13 0.000315654
11 *92:15 4.43592e-05
12 *92:16 0.000143991
13 *92:17 6.21175e-06
14 *92:18 0.000370464
15 *92:19 0.000359015
16 *92:20 0.000363132
17 *92:21 0.000780829
18 *92:22 2.01212e-05
19 *92:23 0.000732012
20 *92:4 *115:10 0.00050044
21 *92:5 *115:11 2.154e-05
22 *92:5 *115:10 0.00040037
23 *92:6 *115:12 0.00019828
24 *92:6 *115:13 0.00022111
25 *92:8 *115:10 0.00019653
26 *92:8 *115:14 0.00050044
27 *92:8 *115:15 0.00039968
28 *92:9 *115:11 1.021e-05
29 *92:9 *115:16 0.00022111
30 *92:10 *115:16 0.00019828
31 *92:10 *115:17 0.00021874
32 *92:10 *115:13 0.0002222
33 *92:11 *115:5 5.72e-06
34 *92:11 *115:18 5.51e-06
35 *92:11 *115:19 8.83e-06
36 *92:12 *115:11 4.667e-05
37 *92:14 *115:14 3.425e-05
38 *92:17 *115:17 7.749e-05
39 *92:17 *115:13 5.807e-05
40 *92 *115:14 5.03099649e-05

*RES
1 *537:Q *92:18 6.98354
2 *92:18 *92:11 4.26339
3 *92:7 *92:11 3.42612
4 *92:15 *92:7 7.39908
5 *92:15 *92:17 6.98354
6 *92:17 *92:10 7.82165
7 *92:6 *92:10 5.62388
8 *92:6 *92:9 5.62388
9 *92:12 *92:9 0.271329
10 *92:5 *92:12 0.207852
11 *92:5 *92:8 10.9764385
12 *92:4 *92:8 10.4294
13 *92:4 *92:14 0.181891
14 *92 *92:14 0.636451
15 *92:18 *92:19 0.818342
16 *92:19 *92:21 1.03909
17 *92:21 *92:22 2.51984
18 *92:20 *92:22 0.389743
19 *92:20 *92:13 7.62
20 *92:13 *92:16 1.51794
21 *92:23 *92:16 8.64602184
22 *748:A *92:23 6.98354
23 *92:16 *767:A2 0.505979
*END

*D_NET *93 0.0158487

*CONN
*P *93 O *C 609 0 *L 0.005
*I *757:A2 I *C 587.16 147.84 *L 0.00462 *D ND3D1BWP7T
*I *747:A2 I *C 591.08 159.04 *L 0.00339 *D CKXOR2D1BWP7T
*I *536:Q O *C 606.2 156.8 *L 0 *D DFKCNQD1BWP7T

*CAP
1 *93:4 0.000168219
2 *93:5 0.000268792
3 *93:6 0.00139494
4 *93:7 3.04381e-05
5 *93:8 0.000104405
6 *93:9 3.52912e-05
7 *93:10 0.000520407
8 *93:11 0.000753099
9 *93:12 0.000387693
10 *93:13 0.000646566
11 *93:14 0.000566107
12 *93:15 0.000537308
13 *93:16 0.00092715
14 *93:17 0.000566107
15 *93:18 0.00068588
16 *93:19 0.00114892
17 *93:20 0.00085578
18 *93:21 0.000250402
19 *93:22 0.000327285
20 *93:23 0.000413767
21 *93:25 1.74966e-05
22 *93:26 0.000703483
23 *93:27 0.000420174
24 *93:28 2.83947e-05
25 *93:29 0.000727834
26 *93:30 6.2941e-05
27 *93:4 *7:47 0.00055387
28 *93:12 *116:6 0.00274597

*RES
1 *93:29 *93:30 2.4939
2 *93:11 *93:30 0.441509
3 *93:11 *93:7 2.4809
4 *93:25 *93:7 6.98355
5 *93:8 *93:25 0.103907
6 *93:8 *93:9 0.103907
7 *536:Q *93:9 6.98355
8 *93:7 *93:28 6.98355
9 *93:5 *93:28 1.01126
10 *93:5 *93:4 0.940831
11 *93:6 *93:4 5.62387
12 *93:6 *93:19 5.62387
13 *93:15 *93:19 5.62387
14 *93:15 *93:18 5.62387
15 *93:14 *93:18 5.62387
16 *93:14 *93:17 5.62387
17 *93:13 *93:17 5.62387
18 *93:13 *93:16 5.62387
19 *93:12 *93:16 5.49395
20 *93:12 *93:20 5.55885
21 *93 *93:20 1.0262
22 *93:27 *93:29 0.415629
23 *93:27 *93:22 7.59399
24 *93:22 *93:24 0.831258
25 *747:A2 *93:24 6.98355
26 *93:22 *93:10 1.95209
27 *93:23 *93:10 1.37307
28 *93:23 *93:26 6.98355
29 *93:26 *93:21 8.43825054
30 *757:A2 *93:21 6.98355
*END

*D_NET *94 0.0157208

*CONN
*P *94 O *C 565.32 0 *L 0.005
*I *757:A3 I *C 586.04 147.84 *L 0.00479 *D ND3D1BWP7T
*I *752:A I *C 587.72 155.68 *L 0.00803 *D HA1D0BWP7T
*I *535:Q O *C 570.36 148.96 *L 0 *D DFKCNQD1BWP7T

*CAP
1 *757:A3 4.96655e-05
2 *94:4 0.00050695
3 *94:5 0.000575434
4 *94:7 0.00241815
5 *94:8 0.000379096
6 *94:9 0.00162656
7 *94:10 0.000237332
8 *94:11 0.000568275
9 *94:12 0.000580341
10 *94:13 0.000276038
11 *94:14 0.000893278
12 *94:15 0.000697384
13 *94:16 0.000522115
14 *94:17 0.0001166
15 *94:18 1.89659e-05
16 *94:19 0.000162575
17 *94:22 0.000265707
18 *94:23 0.00017335
19 *94:24 0.000245523
20 *94:25 2.546e-06
21 *94:26 0.000305188
22 *94:27 0.000467026
23 *94:28 0.000544623
24 *94:4 *7:42 0.00062727
25 *94:9 *117:4 0.00051047
26 *94:10 *117:5 0.0001125
27 *94:11 *117:5 0.00013877
28 *94:11 *117:6 0.00013877
29 *94:12 *117:7 0.00010791
30 *94:12 *117:6 8.594e-05
31 *94:12 *117:8 8.216e-05
32 *94:14 *117:9 0.00035528
33 *94:14 *117:4 0.00034523
34 *94:15 *117:9 9.63e-06
35 *94:15 *117:10 0.00013877
36 *94:16 *117:10 0.00013877
37 *94:16 *117:7 8.594e-05
38 *94:16 *117:6 0.00010566
39 *94:7 *117:7 8.005e-05
40 *94:7 *117:11 6.118e-05
41 *94:7 *117:8 9.099e-05
42 *94:18 *117:9 8.3e-07
43 *94:21 *117:9 0.00020639
44 *94:24 *117:9 4.826e-05
45 *94:24 *117:5 5.012e-05
46 *94:14 *117 0.00051047
47 *94:17 *117 3.636e-05
48 *94:20 *117 2.02999517e-05

*RES
1 *94:17 *94:20 0.441646
2 *94:9 *94:20 0.182023
3 *94:9 *94:14 10.6373
4 *94:21 *94:14 9.9373
5 *94:21 *94:24 0.207803
6 *94:24 *94:10 7.61996
7 *94:10 *94:18 2.07829
8 *94:18 *94:15 7.65746
9 *94:11 *94:15 5.62396
10 *94:11 *94:16 5.62396
11 *94:12 *94:16 5.62396
12 *94:12 *94:7 5.62396
13 *94:26 *94:7 17.0658836
14 *94:22 *94:26 6.98353
15 *535:Q *94:22 6.98353
16 *94:22 *94:5 7.81475
17 *94:5 *94:4 2.48114
18 *94:6 *94:4 2.57879
19 *94:6 *94:27 6.98353
20 *94:27 *94:13 8.02255
21 *94:13 *757:A3 2.27698
22 *757:A3 *94:28 6.98353
23 *94:28 *94:8 1.37311
24 *94:19 *94:8 1.31556
25 *94:19 *94:23 0.415606
26 *94:23 *94:25 0.220823
27 *752:A *94:25 6.98353
28 *94:17 *94 0.194783
*END

*D_NET *95 0.0172113

*CONN
*P *95 O *C 522.2 0 *L 0.005
*I *765:A1 I *C 476.84 135.52 *L 0.00435 *D ND2D1BWP7T
*I *751:A2 I *C 476.28 147.84 *L 0.00339 *D CKXOR2D1BWP7T
*I *534:Q O *C 479.08 150.08 *L 0 *D DFKCNQD1BWP7T

*CAP
1 *765:A1 0.000113774
2 *95:4 0.00125419
3 *95:5 0.000415283
4 *95:6 1.48422e-05
5 *95:7 0.000784353
6 *95:8 0.00156307
7 *95:9 0.00123602
8 *95:10 0.00106268
9 *95:11 0.000361375
10 *95:12 1.65796e-05
11 *95:13 6.99916e-05
12 *95:15 0.000281828
13 *95:16 3.05779e-05
14 *95:17 0.000381181
15 *95:18 0.00162656
16 *95:19 5.85745e-05
17 *95:20 0.000330648
18 *95:22 0.000127921
19 *95:23 0.000116603
20 *95:25 0.000810364
21 *95:27 0.00100542
22 *95:4 *58:18 0.00208018
23 *95:4 *96:5 0.00074526
24 *95:4 *107:25 0.00065305
25 *95:18 *118:4 0.00144029
26 *95:4 *119:8 0.0006306

*RES
1 *95:23 *95 0.194935
2 *95:23 *95:24 0.441484
3 *95:18 *95:24 0.18195
4 *95:18 *95:19 10.6371746
5 *95:21 *95:19 3.28695
6 *95:21 *95:22 0.207757
7 *95:22 *95:26 7.61999
8 *95:26 *95:20 2.37655
9 *95:25 *95:20 5.62389
10 *95:25 *95:27 5.62389
11 *95:27 *95:4 9.15382004
12 *95:4 *95:7 7.32426
13 *95:5 *95:7 5.62389
14 *95:5 *95:8 5.62389
15 *95:17 *95:8 10.3285
16 *95:6 *95:17 0.389707
17 *95:6 *95:9 0.945134
18 *95:10 *95:9 5.30252
19 *95:16 *95:10 6.98357
20 *765:A1 *95:16 0.506084
21 *95:10 *95:13 4.35138
22 *95:15 *95:13 0.597627
23 *95:15 *95:14 0.220742
24 *751:A2 *95:14 6.98357
25 *95:13 *95:11 0.415677
26 *95:11 *95:12 1.25985
27 *534:Q *95:12 6.98357
*END

*D_NET *96 0.0144669

*CONN
*P *96 O *C 478.52 0 *L 0.005
*I *765:A2 I *C 475.16 135.52 *L 0.00474 *D ND2D1BWP7T
*I *754:A I *C 465.08 143.36 *L 0.00803 *D HA1D0BWP7T
*I *533:Q O *C 467.88 156.8 *L 0 *D DFKCNQD1BWP7T

*CAP
1 *765:A2 7.77629e-06
2 *96:4 0.00141254
3 *96:5 0.000615275
4 *96:6 0.000564607
5 *96:7 0.00159256
6 *96:8 0.00104399
7 *96:9 0.000454281
8 *96:10 0.000623294
9 *96:11 0.000266459
10 *96:12 0.00135762
11 *96:13 0.000462738
12 *96:15 3.73262e-05
13 *96:16 0.000330614
14 *96:17 0.000234358
15 *96:18 2.5759e-06
16 *96:19 0.00152313
17 *96:20 0.00029319
18 *96:21 0.000249182
19 *96:22 9.58185e-05
20 *96:5 *95:4 0.00074526
21 *96:4 *119:4 0.00255435

*RES
1 *754:A *96:19 6.98357
2 *96:19 *96:20 1.85748
3 *96:20 *96:21 1.03911
4 *96:21 *96:13 1.17821
5 *96:15 *96:13 1.12075
6 *533:Q *96:15 6.98357
7 *96:19 *96:8 9.89298153
8 *96:8 *765:A2 4.55411
9 *765:A2 *96:22 6.98357
10 *96:22 *96:12 5.30252
11 *96:7 *96:12 7.37474
12 *96:17 *96:7 7.81476
13 *96:17 *96:18 6.98357
14 *96:18 *96:11 3.87289
15 *96:6 *96:11 5.62389
16 *96:6 *96:10 5.62389
17 *96:5 *96:10 5.62389
18 *96:5 *96:9 5.62389
19 *96:4 *96:9 10.6371746
20 *96:4 *96:16 0.18195
21 *96:14 *96:16 0.441484
22 *96:14 *96 0.194935
*END

*D_NET *97 0.0128938

*CONN
*P *97 O *C 434.84 0 *L 0.005
*I *769:A1 I *C 444.92 140 *L 0.00435 *D ND2D1BWP7T
*I *762:A2 I *C 447.16 140 *L 0.00256 *D OA21D0BWP7T
*I *532:Q O *C 440.44 134.4 *L 0 *D DFKCNQD1BWP7T

*CAP
1 *97 0.000130614
2 *769:A1 0.000133229
3 *532:Q 0.000643133
4 *97:4 0.00100146
5 *97:5 0.000723731
6 *97:6 0.000612009
7 *97:7 0.00161628
8 *97:8 0.000903277
9 *97:9 0.000549982
10 *97:10 0.000269146
11 *97:11 0.00145992
12 *97:12 3.80055e-05
13 *97:13 0.000322861
14 *97:16 4.23708e-05
15 *97:17 0.000153748
16 *97:18 0.000227934
17 *97:20 5.57627e-05
18 *97:21 0.000412018
19 *97:4 *120:10 0.0004365
20 *97:4 *120:11 0.0004365
21 *97:4 *120:12 1.785e-05
22 *97:5 *120:13 0.0001008
23 *97:5 *120:14 0.00027154
24 *97:6 *120:15 1.534e-05
25 *97:6 *120:14 0.00027154
26 *97:6 *120:16 0.00025106
27 *97:8 *120:17 0.00010046
28 *97:8 *120:13 0.00026677
29 *97:8 *120:12 3.885e-05
30 *97:9 *120:17 0.00027154
31 *97:9 *120:15 0.00027154
32 *97:10 *120:15 0.00025087
33 *97:10 *120:18 8.445e-05
34 *97:10 *120:16 0.00020676
35 *97:12 *120:12 1.226e-05
36 *97:13 *120:18 7.451e-05
37 *97:14 *120:10 3.425e-05
38 *97:15 *120:16 8.454e-05
39 *97:17 *120:13 3.885e-05
40 *97:17 *120:12 1.125e-05
41 *97 *120:10 5.03100252e-05

*RES
1 *97:5 *97:8 5.6238
2 *97:17 *97:8 0.869543
3 *97:12 *97:17 0.207868
4 *97:4 *97:12 9.55986786
5 *97:4 *97:14 0.181902
6 *97 *97:14 0.63644
7 *97:5 *97:9 5.6238
8 *97:6 *97:9 5.6238
9 *97:6 *97:10 5.6238
10 *97:15 *97:10 3.8729
11 *97:13 *97:15 6.98348
12 *97:13 *97:7 9.06171513
13 *97:7 *97:11 7.37471
14 *97:20 *97:11 5.09458
15 *532:Q *97:20 6.98348
16 *532:Q *97:16 2.53
17 *97:21 *97:16 8.02267
18 *97:18 *97:21 6.98348
19 *97:18 *762:A2 0.50603
20 *97:18 *97:19 0.265925
21 *769:A1 *97:19 0.493047
*END

*D_NET *98 0.0192305

*CONN
*P *98 O *C 391.72 0 *L 0.005
*I *769:A2 I *C 443.24 140 *L 0.00474 *D ND2D1BWP7T
*I *762:A1 I *C 448.28 140 *L 0.00259 *D OA21D0BWP7T
*I *605:A1 I *C 407.13 151.4625 *L 0.00344 *D NR2XD0BWP7T
*I *531:Q O *C 407.4 156.8 *L 0 *D DFKCNQD1BWP7T

*CAP
1 *98 0.000130621
2 *98:5 0.00100146
3 *98:6 0.000723742
4 *98:7 0.000553019
5 *98:8 0.000598196
6 *98:9 0.000169309
7 *98:10 0.000872542
8 *98:11 0.000553019
9 *98:12 0.000456301
10 *98:13 0.00187388
11 *98:14 0.00133775
12 *98:15 0.00186027
13 *98:16 3.798e-05
14 *98:17 0.0027262
15 *98:18 3.07418e-05
16 *98:19 0.00048359
17 *98:20 0.000190566
18 *98:22 0.00015375
19 *98:23 0.000199593
20 *98:25 0.000225634
21 *98:26 8.27823e-06
22 *98:27 0.000772829
23 *98:5 *121:4 0.0004365
24 *98:5 *121:5 0.0004365
25 *98:5 *121:6 1.785e-05
26 *98:6 *121:7 0.0001008
27 *98:6 *121:8 0.00027154
28 *98:7 *121:8 0.00027154
29 *98:7 *121:9 0.00027154
30 *98:8 *121:10 3.514e-05
31 *98:8 *121:9 0.00022506
32 *98:8 *121:11 7.691e-05
33 *98:8 *121:12 5.686e-05
34 *98:9 *121:13 7.685e-05
35 *98:10 *121:14 0.00010046
36 *98:10 *121:7 0.00026677
37 *98:10 *121:6 3.885e-05
38 *98:11 *121:14 0.00027154
39 *98:11 *121:15 0.00027154
40 *98:12 *121:15 0.00027154
41 *98:12 *121:9 0.00020676
42 *98:12 *121:12 0.00016816
43 *98:13 *121:10 0.00012863
44 *98:13 *121:13 0.00012299
45 *98:16 *121:6 1.226e-05
46 *98:21 *121:4 3.425e-05
47 *98:22 *121:7 3.885e-05
48 *98:22 *121:6 1.125e-05
49 *98 *121:4 5.03100738e-05

*RES
1 *98:5 *98:21 0.181996
2 *98 *98:21 0.636424
3 *98:5 *98:16 9.55989
4 *98:16 *98:22 0.207932
5 *98:22 *98:10 0.869388
6 *98:6 *98:10 5.62385
7 *98:6 *98:11 5.62385
8 *98:7 *98:11 5.62385
9 *98:7 *98:12 5.62385
10 *98:8 *98:12 5.62385
11 *98:8 *98:13 5.62385
12 *98:13 *98:9 14.7798271
13 *98:9 *98:14 0.847513
14 *98:17 *98:14 4.97141
15 *98:19 *98:17 10.4126
16 *605:A1 *98:19 6.98352
17 *98:18 *98:19 1.14295
18 *531:Q *98:18 6.98352
19 *98:17 *98:15 6.27628
20 *98:26 *98:15 6.80356
21 *98:25 *98:26 0.649279
22 *98:25 *98:27 0.194851
23 *98:27 *98:24 8.854
24 *98:23 *98:24 0.207932
25 *762:A1 *98:23 6.98352
26 *98:27 *98:20 7.19123
27 *769:A2 *98:20 6.98352
*END

*D_NET *99 0.0124182

*CONN
*P *99 O *C 348.04 0 *L 0.005
*I *660:A2 I *C 348.6 135.52 *L 0.00529 *D XOR2D1BWP7T
*I *594:Q O *C 346.36 142.24 *L 0 *D DFKCNQD1BWP7T

*CAP
1 *99:3 0.0014505
2 *99:4 0.000723734
3 *99:5 0.000552998
4 *99:6 0.000924283
5 *99:7 0.000290565
6 *99:8 0.000552998
7 *99:9 0.000594255
8 *99:10 0.00129189
9 *99:12 1.11994e-05
10 *99:13 0.000292667
11 *99:14 0.00072068
12 *99:16 6.47175e-05
13 *99:17 0.00029674
14 *99:18 7.83516e-06
15 *99:20 0.000343308
16 *99:3 *122:4 0.00051047
17 *99:4 *122:4 0.0001008
18 *99:4 *122:5 0.00027154
19 *99:5 *122:5 0.00027154
20 *99:5 *122:6 0.00027154
21 *99:6 *122:7 4.619e-05
22 *99:6 *122:8 0.00017037
23 *99:7 *122:9 0.00010046
24 *99:7 *122:4 0.00026677
25 *99:8 *122:9 0.00027154
26 *99:8 *122:10 0.00027154
27 *99:9 *122:10 0.00027154
28 *99:9 *122:7 0.00022494
29 *99:9 *122:6 0.00028832
30 *99:10 *122:8 0.00016094
31 *99:10 *122:11 5.487e-05
32 *99:12 *122:7 4.46e-06
33 *99:14 *122:11 2.806e-05
34 *99:15 *122:7 5.717e-05
35 *99:15 *122:6 8.632e-05
36 *99:17 *122:11 3.3e-06
37 *99:7 *122 0.00051047
38 *99:11 *122 3.636e-05
39 *99:13 *122 2.03000436e-05

*RES
1 *99:6 *99:10 4.46516
2 *99:19 *99:10 5.28953
3 *99:14 *99:19 0.597627
4 *99:14 *99:16 1.87047
5 *99:16 *99:17 0.207757
6 *99:17 *99:18 0.844176
7 *594:Q *99:18 6.98357
8 *99:19 *99:20 0.428662
9 *660:A2 *99:20 6.98357
10 *99:12 *99:6 7.19132
11 *99:12 *99:15 6.98357
12 *99:15 *99:9 6.78246
13 *99:5 *99:9 5.62389
14 *99:5 *99:8 5.62389
15 *99:4 *99:8 5.62389
16 *99:4 *99:7 5.62389
17 *99:3 *99:7 10.6371746
18 *99:3 *99:13 0.18195
19 *99:11 *99:13 0.441484
20 *99:11 *99 0.194935
*END

*D_NET *100 0.0123521

*CONN
*P *100 O *C 304.36 0 *L 0.005
*I *664:A I *C 310.52 140 *L 0.0143 *D HA1D1BWP7T
*I *593:Q O *C 310.52 148.96 *L 0 *D DFKCNQD1BWP7T

*CAP
1 *100 0.00123475
2 *100:3 0.000263931
3 *100:4 0.00055611
4 *100:5 0.00160285
5 *100:6 0.000929074
6 *100:7 0.00055611
7 *100:8 0.000239923
8 *100:9 0.00204332
9 *100:10 3.35487e-05
10 *100:11 0.000221652
11 *100:12 0.000165904
12 *100:13 0.000719239
13 *100:14 0.000627136
14 *100:3 *123:4 6.451e-05
15 *100:3 *123:5 9.034e-05
16 *100:4 *123:6 0.00022111
17 *100:4 *123:7 0.00022111
18 *100:6 *123:4 9.045e-05
19 *100:6 *123:5 0.00026677
20 *100:6 *123:8 3.795e-05
21 *100:7 *123:4 0.00022111
22 *100:7 *123:9 0.00022111
23 *100:8 *123:9 0.00022111
24 *100:8 *123:7 0.00026485
25 *100:10 *123:4 1.024e-05
26 *100:12 *123:4 1.086e-05
27 *100:14 *123:4 3.33e-06
28 *100:14 *123:5 3.5e-07
29 *100:14 *123:6 0.00022055
30 *100:15 *123:7 2.035e-05
31 *100 *123:5 0.00053009
32 *100 *123:8 0.000442389953

*RES
1 *100:11 *100:5 7.81487
2 *100:5 *100:9 7.37475
3 *100:13 *100:9 6.96512
4 *664:A *100:13 6.98345
5 *100:13 *100:16 2.49388
6 *593:Q *100:16 6.98345
7 *100:11 *100:15 6.98345
8 *100:15 *100:8 3.8729
9 *100:4 *100:8 5.62392
10 *100:4 *100:7 5.62392
11 *100:14 *100:7 12.6451855
12 *100:12 *100:14 0.63635
13 *100:10 *100:12 0.207807
14 *100:3 *100:10 0.818302
15 *100:6 *100:3 12.3617
16 *100 *100:6 11.0398
*END

*D_NET *101 0.0148548

*CONN
*P *101 O *C 261.24 0 *L 0.005
*I *675:A2 I *C 251.16 134.96 *L 0.00493 *D AN3XD1BWP7T
*I *662:A2 I *C 248.36 143.36 *L 0.00339 *D CKXOR2D1BWP7T
*I *592:Q O *C 251.72 157.92 *L 0 *D DFKCNQD1BWP7T

*CAP
1 *101 0.000133338
2 *101:4 0.00104625
3 *101:5 0.000470609
4 *101:6 0.000586896
5 *101:7 0.000594639
6 *101:8 0.000950509
7 *101:9 0.000586896
8 *101:10 0.000521137
9 *101:11 0.000883617
10 *101:12 0.000675133
11 *101:13 3.97363e-05
12 *101:15 0.000105862
13 *101:16 0.00101755
14 *101:17 0.000172435
15 *101:19 8.27134e-05
16 *101:21 0.000694642
17 *101:22 0.000374214
18 *101:23 0.000302436
19 *101:24 0.000193285
20 *101:25 0.000158626
21 *101:27 0.000111003
22 *101:28 0.000306364
23 *101:29 4.45736e-05
24 *101:16 *102:4 0.00049828
25 *101:4 *124:4 0.00039172
26 *101:4 *124:5 0.0004365
27 *101:4 *124:6 1.785e-05
28 *101:5 *124:7 6.373e-05
29 *101:5 *124:8 0.00022111
30 *101:6 *124:8 0.00019031
31 *101:6 *124:9 0.00022111
32 *101:7 *124:10 0.00016302
33 *101:7 *124:9 0.00011786
34 *101:7 *124:11 0.00013133
35 *101:8 *124:12 7.709e-05
36 *101:8 *124:7 0.00019637
37 *101:8 *124:6 1.091e-05
38 *101:9 *124:12 0.00019031
39 *101:9 *124:13 0.00022111
40 *101:10 *124:13 0.00019031
41 *101:10 *124:10 0.00013693
42 *101:10 *124:9 0.00015663
43 *101:11 *124:10 0.00011519
44 *101:11 *124:14 5.168e-05
45 *101:11 *124:11 0.00012239
46 *101:13 *124:6 1.053e-05
47 *101:18 *124:4 3.225e-05
48 *101:20 *124:6 4.78e-06
49 *101:22 *124:6 2.249e-05
50 *101:29 *124:11 6.271e-05
51 *101 *124:4 4.95799439e-05
52 *101:16 *143:4 0.00041888
53 *101:28 *179:2 0.0002793

*RES
1 *101:14 *101:12 2.57552
2 *101:27 *101:12 0.346934
3 *101:23 *101:27 1.0392
4 *101:21 *101:23 2.07823
5 *101:19 *101:21 0.207807
6 *101:17 *101:19 0.610584
7 *662:A2 *101:17 6.98344
8 *101:16 *101:17 2.29904
9 *101:16 *101:26 1.0132
10 *101:25 *101:26 0.636419
11 *675:A2 *101:25 6.98344
12 *101:24 *101:25 0.831228
13 *101:28 *101:24 10.5164824
14 *101:28 *101:29 6.98344
15 *101:29 *101:11 4.47114
16 *101:7 *101:11 5.62379
17 *101:7 *101:10 5.62379
18 *101:6 *101:10 5.62379
19 *101:6 *101:9 5.62379
20 *101:5 *101:9 5.62379
21 *101:5 *101:8 5.62379
22 *101:15 *101:8 0.245999
23 *101:15 *101:22 0.181972
24 *101:20 *101:22 0.649417
25 *101:13 *101:20 0.207807
26 *101:4 *101:13 9.55993
27 *101:4 *101:18 0.181972
28 *101 *101:18 0.636419
29 *592:Q *101:14 6.98344
*END

*D_NET *102 0.0146325

*CONN
*P *102 O *C 217.56 0 *L 0.005
*I *675:A3 I *C 251.72 135.52 *L 0.00489 *D AN3XD1BWP7T
*I *666:A I *C 250.6 140 *L 0.00803 *D HA1D0BWP7T
*I *591:Q O *C 243.88 133.28 *L 0 *D DFKCNQD1BWP7T

*CAP
1 *102 0.00175705
2 *591:Q 0.000826981
3 *102:4 0.000363877
4 *102:5 0.000783494
5 *102:6 0.000612414
6 *102:7 0.000690433
7 *102:8 0.00155275
8 *102:9 0.000448144
9 *102:10 0.000612414
10 *102:11 0.000456777
11 *102:12 7.29792e-05
12 *102:13 5.97078e-05
13 *102:14 3.83932e-05
14 *102:15 0.000501899
15 *102:18 0.00036932
16 *102:4 *101:16 0.00049828
17 *102:5 *125:6 0.00010046
18 *102:5 *125:7 0.00024368
19 *102:6 *125:7 0.00027154
20 *102:6 *125:8 0.00024368
21 *102:7 *125:9 4.619e-05
22 *102:7 *125:8 0.00016483
23 *102:7 *125:10 4.46e-06
24 *102:7 *125:11 5.176e-05
25 *102:8 *125:5 2.599e-05
26 *102:9 *125:12 8.851e-05
27 *102:9 *125:6 0.00025274
28 *102:9 *125:13 0.00052965
29 *102:10 *125:12 0.00027154
30 *102:10 *125:14 0.00024368
31 *102:11 *125:14 0.00027154
32 *102:11 *125:8 0.00030858
33 *102:11 *125:11 9.774e-05
34 *102:12 *125:9 0.00017489
35 *102:12 *125:5 8.006e-05
36 *102 *125:15 1.436e-05
37 *102 *125:6 0.00047452
38 *102 *125:13 1.922e-05
39 *102 *125 1.885005e-05
40 *102:8 *155:7 0.00067918
41 *102:4 *161:3 0.000309929974

*RES
1 *675:A3 *102:18 6.98347
2 *102:18 *102:19 0.844296
3 *102:4 *102:19 0.389805
4 *102:4 *102:17 0.844296
5 *666:A *102:17 6.98347
6 *102:18 *102:14 8.02267
7 *591:Q *102:14 3.5421
8 *591:Q *102:16 6.98347
9 *102:15 *102:16 1.45478
10 *102:15 *102:13 7.50905
11 *102:8 *102:13 9.24211
12 *102:12 *102:8 9.16866779
13 *102:7 *102:12 5.62387
14 *102:7 *102:11 5.62387
15 *102:6 *102:11 5.62387
16 *102:6 *102:10 5.62387
17 *102:5 *102:10 5.62387
18 *102:5 *102:9 5.62387
19 *102 *102:9 11.0398655
*END

*D_NET *103 0.0140624

*CONN
*P *103 O *C 174.44 0 *L 0.005
*I *679:A2 I *C 181.72 140.56 *L 0.00485 *D AN3D2BWP7T
*I *665:A2 I *C 180.04 135.52 *L 0.00339 *D CKXOR2D1BWP7T
*I *590:Q O *C 176.12 142.24 *L 0 *D DFKCNQD1BWP7T

*CAP
1 *103 0.000157741
2 *103:4 0.000117985
3 *103:5 0.000171194
4 *103:6 0.000605841
5 *103:7 0.000182736
6 *103:8 0.000138001
7 *103:9 0.000619999
8 *103:10 0.000215375
9 *103:11 0.00089756
10 *103:12 0.000685655
11 *103:13 0.000147028
12 *103:14 0.000370853
13 *103:15 9.81949e-05
14 *103:16 0.000191109
15 *103:17 0.00164794
16 *103:18 2.42658e-05
17 *103:20 0.000395672
18 *103:21 0.000341708
19 *103:22 0.000456827
20 *103:23 0.000100383
21 *103:4 *6:47 0.00073826
22 *103:7 *79:4 0.00235474
23 *103:12 *126:4 8.757e-05
24 *103:12 *126:5 0.00024192
25 *103:14 *126:5 0.00024232
26 *103:14 *126:6 0.00024192
27 *103:9 *126:7 5.828e-05
28 *103:13 *126:8 0.00041971
29 *103:13 *126:9 8.773e-05
30 *103:13 *126:4 0.00023713
31 *103:7 *126:9 0.00024232
32 *103:7 *126:10 0.00024192
33 *103:8 *126:10 0.00024232
34 *103:8 *126:11 2.187e-05
35 *103:8 *126:6 0.00029002
36 *103:16 *126:12 4.973e-05
37 *103:17 *126:4 0.00041902
38 *103:17 *126:12 3.818e-05
39 *103:17 *126 4.788e-05
40 *103 *126:12 1.593e-05
41 *103 *126 0.000177540048

*RES
1 *103:9 *103:8 5.62383
2 *103:14 *103:8 5.62383
3 *103:14 *103:7 5.62383
4 *103:12 *103:7 5.62383
5 *103:12 *103:13 5.62383
6 *103:17 *103:13 10.4163961
7 *103:16 *103:17 6.98342
8 *103:19 *103:16 7.60694
9 *103 *103:19 0.623528
10 *103:9 *103:10 5.62383
11 *103:15 *103:10 2.79562
12 *103:15 *103:11 0.415632
13 *103:11 *103:23 3.55886
14 *103:22 *103:23 0.389725
15 *103:22 *103:21 7.61998
16 *103:21 *103:5 1.45479
17 *103:5 *103:18 0.623528
18 *103:4 *103:18 6.98342
19 *679:A2 *103:4 6.98342
20 *103:5 *103:6 8.64610481
21 *665:A2 *103:6 6.98342
22 *103:21 *103:20 8.02258
23 *590:Q *103:20 6.98342
*END

*D_NET *104 0.0178019

*CONN
*P *104 O *C 130.76 0 *L 0.005
*I *679:A3 I *C 182.28 140 *L 0.0049 *D AN3D2BWP7T
*I *671:A I *C 181.16 147.84 *L 0.00803 *D HA1D0BWP7T
*I *589:Q O *C 176.68 156.8 *L 0 *D DFKCNQD1BWP7T

*CAP
1 *104:4 6.40522e-05
2 *104:5 0.000709967
3 *104:7 8.77417e-05
4 *104:8 7.70388e-07
5 *104:9 0.000382883
6 *104:10 1.27389e-05
7 *104:11 0.000971486
8 *104:12 0.0016371
9 *104:13 0.00143823
10 *104:14 0.000680693
11 *104:15 0.00104855
12 *104:16 0.00180312
13 *104:17 0.000370749
14 *104:18 0.00016423
15 *104:19 0.000118612
16 *104:21 0.000780733
17 *104:22 0.000686801
18 *104:24 6.3612e-05
19 *104:28 0.000100811
20 *104:29 0.000138752
21 *104:30 2.45424e-05
22 *104:31 0.000275689
23 *104:32 0.000349701
24 *104:33 0.000815263
25 *104:34 0.00023816
26 *104:35 0.000162139
27 *104:36 1.60956e-05
28 *104:4 *80:10 0.00169998
29 *104:12 *127:7 0.00295866

*RES
1 *104:32 *104:4 7.61984
2 *104:4 *104:20 1.24689
3 *104:20 *104:5 7.65744
4 *104:9 *104:5 5.62385
5 *104:9 *104:6 5.62385
6 *104:6 *104:7 10.8564224
7 *104:7 *104:27 0.610442
8 *104:11 *104:27 0.23374
9 *104:11 *104:8 6.03617
10 *104:10 *104:8 3.08219
11 *104:10 *104:21 0.207898
12 *104:21 *104:28 4.98773
13 *104:28 *104:33 0.415631
14 *104:33 *104:18 3.17778
15 *104:18 *104:13 7.14374
16 *104:13 *104:16 6.95904
17 *104:22 *104:16 6.965
18 *679:A3 *104:22 6.98355
19 *104:22 *104:30 1.88334
20 *104:30 *104:31 0.18189
21 *104:29 *104:31 0.523307
22 *104:29 *104:35 0.528773
23 *671:A *104:35 6.98355
24 *104:34 *104:35 0.519497
25 *104:34 *104:36 0.519497
26 *104:24 *104:36 6.98355
27 *104:14 *104:24 2.27694
28 *104:17 *104:14 7.31752
29 *104:23 *104:17 1.12083
30 *589:Q *104:23 6.98355
31 *104:26 *104:32 0.207898
32 *104:26 *104:15 9.93736
33 *104:12 *104:15 10.6371
34 *104:12 *104:25 0.18189
35 *104:19 *104:25 0.441639
36 *104:19 *104 0.194811
*END

*D_NET *105 0.0229983

*CONN
*P *105 O *C 87.08 0 *L 0.005
*I *683:A2 I *C 191.285 142.8 *L 0.00273 *D AN3D1BWP7T
*I *668:A2 I *C 192.92 140 *L 0.00339 *D CKXOR2D1BWP7T
*I *588:Q O *C 187.88 134.4 *L 0 *D DFKCNQD1BWP7T

*CAP
1 *105:4 3.96209e-05
2 *105:5 0.000497274
3 *105:6 0.000228687
4 *105:7 0.00019732
5 *105:8 0.00127298
6 *105:10 0.000744594
7 *105:11 3.91652e-05
8 *105:12 0.000649605
9 *105:13 0.000111166
10 *105:15 0.000568743
11 *105:16 0.000258333
12 *105:17 0.000731024
13 *105:18 3.64816e-05
14 *105:19 0.000654112
15 *105:20 0.00165914
16 *105:21 0.000670821
17 *105:22 0.000847203
18 *105:23 0.0005613
19 *105:24 1.92914e-05
20 *105:27 0.000245548
21 *105:28 0.000156534
22 *105:29 6.73175e-05
23 *105:30 0.0013701
24 *105:31 0.000451324
25 *105:32 0.000296308
26 *105:33 0.000472413
27 *105:34 4.94438e-05
28 *105:35 0.000261827
29 *105:36 0.00025851
30 *105:37 0.000397576
31 *105:4 *81:10 0.00228059
32 *105:11 *82:16 0.00180212
33 *105:20 *128:10 0.00045639
34 *105:4 *128:5 9.508e-05
35 *105:21 *128:5 0.00019454
36 *105:21 *128:6 0.00018346
37 *105:5 *128:7 0.00015059
38 *105:5 *128:6 7.803e-05
39 *105:5 *128:8 0.00011038
40 *105:11 *128:8 2.63e-06
41 *105:10 *128:4 0.00031647
42 *105:10 *128:10 0.00030541
43 *105:22 *128:4 1.816e-05
44 *105:22 *128:11 0.00018346
45 *105:23 *128:11 0.00019454
46 *105:23 *128:7 7.358e-05
47 *105:23 *128:6 0.00022639
48 *105:6 *128:7 0.00011704
49 *105:6 *128:12 2.82e-06
50 *105:6 *128:8 0.00012941
51 *105:24 *128:4 2.53e-06
52 *105:26 *128:4 0.00018347
53 *105:27 *128:4 4.539e-05
54 *105:27 *128:5 5.012e-05
55 *105:8 *128:19 3.46e-06
56 *105:8 *128:20 3.432e-05
57 *105:30 *128:19 6.3e-07
58 *105:10 *128 0.00045378
59 *105:13 *128 3.558e-05
60 *105:14 *128 1.90301207e-05
61 *105:11 *130:5 0.00143512

*RES
1 *105:33 *105:34 1.24701
2 *683:A2 *105:34 6.98343
3 *105:32 *105:33 0.844196
4 *105:31 *105:32 1.24701
5 *105:29 *105:31 0.194921
6 *588:Q *105:29 6.98343
7 *105:28 *105:29 0.415612
8 *105:36 *105:28 7.61991
9 *105:9 *105:36 0.207893
10 *105:9 *105:7 1.60209
11 *105:8 *105:7 6.47702
12 *105:8 *105:30 0.233663
13 *105:30 *105:25 11.3348198
14 *105:12 *105:25 2.07823
15 *105:18 *105:12 7.3769
16 *105:17 *105:18 5.62383
17 *105:17 *105:16 5.62383
18 *105:19 *105:16 5.62383
19 *105:19 *105:15 5.62383
20 *105:11 *105:15 0.387421
21 *105:6 *105:11 10.2077
22 *105:5 *105:6 5.62383
23 *105:5 *105:23 5.62383
24 *105:21 *105:23 5.62383
25 *105:21 *105:22 5.62383
26 *105:24 *105:22 7.65744
27 *105:4 *105:24 1.24701
28 *105:27 *105:4 7.61991
29 *105:26 *105:27 0.207893
30 *105:26 *105:10 9.93734
31 *105:20 *105:10 10.6371
32 *105:20 *105:14 0.181949
33 *105:13 *105:14 0.441556
34 *105:13 *105 0.194921
35 *105:37 *105:33 7.60693
36 *105:37 *105:35 7.19132
37 *668:A2 *105:35 6.98343
*END

*D_NET *106 0.0255387

*CONN
*P *106 O *C 43.96 0 *L 0.005
*I *683:A3 I *C 190.69 143.36 *L 0.00276 *D AN3D1BWP7T
*I *673:A I *C 193.48 147.84 *L 0.00803 *D HA1D0BWP7T
*I *587:Q O *C 187.88 150.08 *L 0 *D DFKCNQD1BWP7T

*CAP
1 *106 3.5591e-05
2 *106:4 5.0811e-05
3 *106:5 0.000812665
4 *106:6 0.000195763
5 *106:7 0.000590499
6 *106:8 0.000817039
7 *106:9 0.00060062
8 *106:10 0.00043817
9 *106:11 0.000121889
10 *106:12 2.15358e-05
11 *106:13 0.00169633
12 *106:14 0.00045106
13 *106:15 0.000648998
14 *106:16 0.000771483
15 *106:17 0.00127576
16 *106:18 0.00142638
17 *106:19 0.000851491
18 *106:20 0.000533631
19 *106:21 0.00072326
20 *106:22 0.00142087
21 *106:23 0.000256255
22 *106:24 0.000137472
23 *106:26 5.8188e-05
24 *106:27 0.00047534
25 *106:29 0.000333131
26 *106:30 8.17427e-05
27 *106:31 8.3244e-05
28 *106:32 0.000454037
29 *106:33 0.000259542
30 *106:34 3.24072e-05
31 *106:35 0.00034874
32 *106:36 0.000122355
33 *106:37 7.42104e-05
34 *106:38 0.000258947
35 *106:39 0.000677963
36 *106:4 *82:12 0.00166951
37 *106:13 *129:9 0.00045893
38 *106:4 *129:5 9.508e-05
39 *106:10 *129:5 0.00019635
40 *106:10 *129:6 0.00017993
41 *106:7 *129:7 9.428e-05
42 *106:7 *129:6 7.875e-05
43 *106:7 *129:8 0.00013485
44 *106:14 *129:11 0.00018769
45 *106:14 *129:8 0.00019528
46 *106:14 *129:12 0.00018769
47 *106:15 *129:12 0.0002025
48 *106:15 *129:13 0.0002025
49 *106:16 *129:13 8.002e-05
50 *106:16 *129:14 0.0002025
51 *106:17 *129:14 0.00012209
52 *106:17 *129:15 7.877e-05
53 *106:9 *129:4 0.00035438
54 *106:9 *129:9 0.00030143
55 *106:5 *129:4 1.835e-05
56 *106:5 *129:10 0.00017993
57 *106:6 *129:10 0.00019635
58 *106:6 *129:7 7.217e-05
59 *106:6 *129:6 0.00022536
60 *106:8 *129:7 0.00014715
61 *106:8 *129:11 0.00019521
62 *106:8 *129:8 0.00028568
63 *106:19 *129:16 0.0002025
64 *106:20 *129:16 0.0002025
65 *106:20 *129:17 8.002e-05
66 *106:20 *129:13 0.00024497
67 *106:21 *129:17 0.0002025
68 *106:21 *129:14 0.00028406
69 *106:21 *129:15 1.05e-06
70 *106:22 *129:14 4.63e-06
71 *106:22 *129:18 6.364e-05
72 *106:24 *129:4 2.53e-06
73 *106:25 *129:4 0.00018218
74 *106:26 *129:4 4.519e-05
75 *106:26 *129:5 5.012e-05
76 *106:9 *129 0.00044149
77 *106:11 *129 3.956e-05
78 *106:12 *129 1.1579994e-05

*RES
1 *106:17 *106:21 5.62389
2 *106:16 *106:21 5.62389
3 *106:16 *106:20 5.62389
4 *106:15 *106:20 5.62389
5 *106:15 *106:19 5.62389
6 *106:14 *106:19 5.14213
7 *106:8 *106:14 16.0267677
8 *106:7 *106:8 5.62389
9 *106:7 *106:6 5.62389
10 *106:10 *106:6 5.62389
11 *106:10 *106:5 5.62389
12 *106:24 *106:5 7.65732
13 *106:4 *106:24 1.24696
14 *106:26 *106:4 7.6199
15 *106:25 *106:26 0.207867
16 *106:25 *106:9 9.93725
17 *106:13 *106:9 10.6372
18 *106:13 *106:12 0.181945
19 *106:11 *106:12 0.441656
20 *106:11 *106 0.194906
21 *106:17 *106:22 5.62389
22 *106:18 *106:22 5.62389
23 *106:18 *106:23 5.62389
24 *106:36 *106:23 1.18655
25 *106:35 *106:36 0.233789
26 *106:35 *106:37 1.63677
27 *106:37 *106:38 0.207867
28 *106:38 *106:32 7.6199
29 *106:31 *106:32 0.220828
30 *106:30 *106:31 0.207867
31 *106:29 *106:30 0.610394
32 *683:A3 *106:29 6.98359
33 *106:39 *106:32 8.23054
34 *106:39 *106:34 7.81481
35 *106:33 *106:34 0.415733
36 *673:A *106:33 6.98359
37 *106:39 *106:27 8.23054
38 *106:27 *106:28 0.623356
39 *587:Q *106:28 6.98359
*END

*D_NET *107 0.0712091

*CONN
*P *107 O *C 0.28 0 *L 0.005
*I *706:A2 I *C 691.32 150.64 *L 0.00269 *D ND3D0BWP7T
*I *669:A2 I *C 663.32 171.36 *L 0.00339 *D CKXOR2D1BWP7T
*I *586:Q O *C 658.28 164.64 *L 0 *D DFKCNQD1BWP7T

*CAP
1 *107 0.000172113
2 *107:4 0.000593883
3 *107:5 0.000514328
4 *107:6 0.000301946
5 *107:7 0.000669042
6 *107:8 0.000692895
7 *107:9 0.000427336
8 *107:10 0.000708142
9 *107:11 0.000498613
10 *107:12 0.000654544
11 *107:13 0.000664412
12 *107:14 0.00028422
13 *107:15 0.000901582
14 *107:16 0.000281648
15 *107:17 0.000771515
16 *107:18 0.000397918
17 *107:19 0.000632328
18 *107:20 0.00069383
19 *107:21 0.000417982
20 *107:22 0.000667359
21 *107:23 0.000726429
22 *107:24 0.000421864
23 *107:25 0.000801448
24 *107:26 0.000675777
25 *107:27 0.000622647
26 *107:28 0.000560864
27 *107:29 0.000538929
28 *107:30 0.00014667
29 *107:31 0.000812859
30 *107:32 0.000880068
31 *107:33 0.000700425
32 *107:34 0.000580741
33 *107:35 0.000673719
34 *107:36 0.000829603
35 *107:37 0.000687703
36 *107:38 0.000946855
37 *107:39 0.000800185
38 *107:40 0.000726382
39 *107:41 0.00092969
40 *107:42 0.0007768
41 *107:43 0.00141413
42 *107:44 0.00154401
43 *107:45 0.00180966
44 *107:46 0.00159219
45 *107:47 0.00101467
46 *107:48 0.000898822
47 *107:49 0.000139608
48 *107:50 0.000191756
49 *107:51 0.000484909
50 *107:52 0.00101467
51 *107:53 0.00102225
52 *107:54 0.00306506
53 *107:55 0.000762769
54 *107:56 0.00179526
55 *107:57 0.00239602
56 *107:58 0.000388564
57 *107:59 0.000231885
58 *107:60 0.000467371
59 *107:61 0.000193861
60 *107:62 0.000379256
61 *107:63 0.000552632
62 *107:64 6.57584e-05
63 *107:65 0.000615678
64 *107:66 8.74596e-06
65 *107:67 0.00029638
66 *107:49 *187:6 0.00087674
67 *107:4 *59:3 0.00013216
68 *107:5 *59:3 0.00013301
69 *107:5 *59:4 5.993e-05
70 *107:6 *59:4 0.00019642
71 *107:7 *59:5 0.00018763
72 *107:6 *59:5 0.00012344
73 *107:8 *59:5 7.531e-05
74 *107:9 *59:6 7.989e-05
75 *107:8 *59:6 0.0001774
76 *107:10 *59:6 0.0001434
77 *107:10 *59:7 9.57e-05
78 *107:11 *59:7 0.00019642
79 *107:12 *59:8 0.00010986
80 *107:11 *59:8 0.00014472
81 *107:13 *59:8 0.00011467
82 *107:14 *59:9 0.00027964
83 *107:13 *59:9 0.0001774
84 *107:15 *59:9 3.876e-05
85 *107:15 *59:10 0.0001278
86 *107:16 *59:10 0.00019642
87 *107:17 *59:11 0.0001792
88 *107:16 *59:11 8.06e-06
89 *107:18 *59:11 9.269e-05
90 *107:19 *59:12 0.00031403
91 *107:18 *59:12 4.36e-06
92 *107:20 *59:12 1.591e-05
93 *107:21 *59:13 0.00032617
94 *107:20 *59:13 8.969e-05
95 *107:22 *59:13 1.559e-05
96 *107:23 *59:14 0.00013525
97 *107:22 *59:14 4.421e-05
98 *107:24 *59:14 0.00012392
99 *107:25 *59:15 0.00010528
100 *107:24 *59:15 2.573e-05
101 *107:4 *59:19 6.688e-05
102 *107:26 *59:24 5.746e-05
103 *107:5 *59:24 0.00021365
104 *107:26 *59:25 0.00019517
105 *107:7 *59:25 0.00013732
106 *107:6 *59:25 0.00011592
107 *107:7 *59:26 6.231e-05
108 *107:9 *59:26 0.00019642
109 *107:9 *59:27 0.00013041
110 *107:27 *59:27 0.00011415
111 *107:10 *59:27 0.00011541
112 *107:27 *59:28 0.0001774
113 *107:12 *59:28 0.00015924
114 *107:11 *59:28 4.945e-05
115 *107:12 *59:29 9.617e-05
116 *107:14 *59:29 0.00019642
117 *107:14 *59:30 3.5e-05
118 *107:28 *59:30 0.0001404
119 *107:15 *59:30 5.512e-05
120 *107:28 *59:31 0.0001774
121 *107:17 *59:31 7.82e-06
122 *107:16 *59:31 0.00032808
123 *107:17 *59:32 7.602e-05
124 *107:19 *59:32 4.17e-06
125 *107:18 *59:32 0.00035631
126 *107:19 *59:33 1.595e-05
127 *107:21 *59:33 9.832e-05
128 *107:20 *59:33 0.00016539
129 *107:21 *59:34 1.508e-05
130 *107:23 *59:34 3.364e-05
131 *107:22 *59:34 0.00025626
132 *107:23 *59:35 0.000104
133 *107:25 *59:35 0.00013631
134 *107:24 *59:35 0.00029815
135 *107:29 *59:35 9.83e-06
136 *107:25 *59:36 6.074e-05
137 *107:29 *59:36 5.393e-05
138 *107:25 *59:37 1.928e-05
139 *107:29 *59:38 2.254e-05
140 *107:29 *59:43 0.000103819941
141 *107:30 *83:22 3.055e-05
142 *107:31 *83:23 0.00026859
143 *107:32 *83:23 0.00011639
144 *107:33 *83:23 3.571e-05
145 *107:4 *83:24 0.00013074
146 *107:33 *83:24 8.002e-05
147 *107:5 *83:24 0.00013301
148 *107:5 *83:25 5.959e-05
149 *107:6 *83:25 0.00019642
150 *107:7 *83:4 0.00016832
151 *107:6 *83:4 0.0001264
152 *107:8 *83:4 4.785e-05
153 *107:9 *83:7 7.205e-05
154 *107:8 *83:7 0.00018166
155 *107:10 *83:7 0.00011007
156 *107:10 *83:26 0.00010623
157 *107:11 *83:26 0.00015369
158 *107:12 *83:27 0.00013993
159 *107:11 *83:27 0.00014786
160 *107:13 *83:27 3.694e-05
161 *107:14 *83:28 0.00024895
162 *107:13 *83:28 0.00018166
163 *107:15 *83:28 3.032e-05
164 *107:15 *83:9 0.00013037
165 *107:16 *83:9 0.00015369
166 *107:17 *83:10 0.00016157
167 *107:16 *83:10 8.15e-06
168 *107:18 *83:10 6.202e-05
169 *107:19 *83:12 0.00028171
170 *107:18 *83:12 3.72e-06
171 *107:20 *83:12 1.046e-05
172 *107:21 *83:14 0.0002926
173 *107:20 *83:14 9.152e-05
174 *107:22 *83:14 1.094e-05
175 *107:23 *83:16 0.00012175
176 *107:22 *83:16 4.505e-05
177 *107:24 *83:16 8.719e-05
178 *107:25 *83:20 0.00016566
179 *107:24 *83:20 3.658e-05
180 *107:29 *83:20 5.817e-05
181 *107:34 *83:29 0.00030251
182 *107:29 *83:29 6.147e-05
183 *107:35 *83:29 3.958e-05
184 *107:36 *83:30 9.585e-05
185 *107:35 *83:30 9.059e-05
186 *107:37 *83:30 0.00014316
187 *107:38 *83:31 0.00011738
188 *107:37 *83:31 6.567e-05
189 *107:39 *83:31 0.00011972
190 *107:40 *83:32 0.0002377
191 *107:39 *83:32 0.00015949
192 *107:41 *83:32 7.703e-05
193 *107:42 *83:33 6.047e-05
194 *107:41 *83:33 0.00015519
195 *107:43 *83:33 0.00016085
196 *107:44 *83:34 0.00011974
197 *107:43 *83:34 0.00021808
198 *107:30 *83:45 3.055e-05
199 *107:31 *83:45 0.00010662
200 *107:32 *83:45 0.00016892
201 *107:31 *83:46 3.696e-05
202 *107:4 *83:46 8.002e-05
203 *107:33 *83:46 0.00024497
204 *107:4 *83:47 0.00013216
205 *107:26 *83:47 5.595e-05
206 *107:5 *83:47 0.00021365
207 *107:26 *83:5 0.00019517
208 *107:7 *83:5 9.717e-05
209 *107:6 *83:5 0.00011587
210 *107:7 *83:6 7.177e-05
211 *107:9 *83:6 0.00015369
212 *107:9 *83:48 0.00013321
213 *107:27 *83:48 7.925e-05
214 *107:10 *83:48 0.00010246
215 *107:27 *83:49 0.00018166
216 *107:12 *83:49 0.00012247
217 *107:11 *83:49 4.479e-05
218 *107:12 *83:50 0.00010673
219 *107:14 *83:50 0.00015369
220 *107:14 *83:8 3.584e-05
221 *107:28 *83:8 0.00010856
222 *107:15 *83:8 4.837e-05
223 *107:28 *83:19 0.00018166
224 *107:17 *83:19 1.59e-06
225 *107:16 *83:19 0.00029467
226 *107:17 *83:11 8.609e-05
227 *107:19 *83:11 3.23e-06
228 *107:18 *83:11 0.00031964
229 *107:19 *83:13 1.613e-05
230 *107:21 *83:13 7.48e-05
231 *107:20 *83:13 0.0001488
232 *107:21 *83:15 1.492e-05
233 *107:23 *83:15 2.318e-05
234 *107:22 *83:15 0.00022988
235 *107:23 *83:17 0.0001146
236 *107:25 *83:17 2.141e-05
237 *107:24 *83:17 0.00026555
238 *107:25 *83:18 6.182e-05
239 *107:34 *83:18 5.216e-05
240 *107:29 *83:18 0.00020349
241 *107:34 *83:51 4.9e-05
242 *107:36 *83:51 8.842e-05
243 *107:35 *83:51 0.00017533
244 *107:36 *83:52 0.00015292
245 *107:38 *83:52 5.591e-05
246 *107:37 *83:52 0.00027036
247 *107:38 *83:53 0.00012027
248 *107:40 *83:53 0.00015949
249 *107:39 *83:53 6.319e-05
250 *107:40 *83:54 7.703e-05
251 *107:42 *83:54 0.00014353
252 *107:41 *83:54 6.474e-05
253 *107:42 *83:55 0.00016086
254 *107:43 *83:55 0.00030815
255 *107:45 *83 4.463e-05
256 *107 *83 4.0000725e-06
257 *107:25 *95:4 0.00065305

*RES
1 *107:62 *107:50 8.02251
2 *107:65 *107:50 9.26057
3 *107:65 *107:66 2.0911
4 *107:63 *107:66 0.104002
5 *107:63 *107:64 1.63664
6 *107:64 *107:67 0.104002
7 *107:67 *107:68 0.636457
8 *669:A2 *107:68 6.9836
9 *107:65 *107:55 2.99115
10 *107:60 *107:55 0.12613
11 *107:58 *107:60 0.220727
12 *107:49 *107:58 0.41573
13 *107:49 *107:54 10.9008
14 *107:48 *107:54 5.62383
15 *107:48 *107:53 5.62383
16 *107:47 *107:53 5.62383
17 *107:47 *107:52 5.62383
18 *107:44 *107:52 8.98674
19 *107:43 *107:44 16.5329
20 *107:42 *107:43 5.62383
21 *107:42 *107:41 5.62383
22 *107:40 *107:41 5.62383
23 *107:40 *107:39 5.62383
24 *107:38 *107:39 5.62383
25 *107:38 *107:37 5.62383
26 *107:36 *107:37 5.62383
27 *107:36 *107:35 5.62383
28 *107:34 *107:35 5.62383
29 *107:34 *107:29 5.62383
30 *107:25 *107:29 5.62383
31 *107:25 *107:24 5.62383
32 *107:23 *107:24 5.62383
33 *107:23 *107:22 5.62383
34 *107:21 *107:22 5.62383
35 *107:21 *107:20 5.62383
36 *107:19 *107:20 5.62383
37 *107:19 *107:18 5.62383
38 *107:17 *107:18 5.62383
39 *107:17 *107:16 5.62383
40 *107:28 *107:16 5.62383
41 *107:28 *107:15 5.62383
42 *107:14 *107:15 5.62383
43 *107:14 *107:13 5.62383
44 *107:12 *107:13 5.62383
45 *107:12 *107:11 5.62383
46 *107:27 *107:11 5.62383
47 *107:27 *107:10 5.62383
48 *107:9 *107:10 5.62383
49 *107:9 *107:8 5.62383
50 *107:7 *107:8 5.62383
51 *107:7 *107:6 5.62383
52 *107:26 *107:6 5.62383
53 *107:26 *107:5 5.62383
54 *107:4 *107:5 5.62383
55 *107:4 *107:33 5.62383
56 *107:31 *107:33 5.62383
57 *107:31 *107:32 5.62383
58 *107:30 *107:32 0.7778
59 *107:51 *107:30 9.24425
60 *107:51 *107:46 17.8155
61 *107:46 *107:56 10.4699
62 *107:45 *107:56 18.1272659
63 *107 *107:45 0.207727
64 *107:60 *107:57 8.26592
65 *107:61 *107:57 16.092
66 *107:59 *107:61 0.207727
67 *706:A2 *107:59 6.9836
68 *586:Q *107:62 6.9836
*END

*D_NET *108 0.0349089

*CONN
*P *108 O *C 957.32 0 *L 0.005
*I *706:A3 I *C 692.16 151.48 *L 0.00262 *D ND3D0BWP7T
*I *674:A I *C 689.64 171.36 *L 0.00803 *D HA1D0BWP7T
*I *585:Q O *C 696.36 164.64 *L 0 *D DFKCNQD1BWP7T

*CAP
1 *108 6.43156e-05
2 *706:A3 3.06099e-06
3 *108:4 0.00095983
4 *108:5 0.000732795
5 *108:6 0.000898854
6 *108:7 0.000786571
7 *108:8 0.000286412
8 *108:9 0.00185649
9 *108:10 0.00119309
10 *108:11 6.98463e-05
11 *108:12 0.00123497
12 *108:13 0.000331909
13 *108:14 0.00126409
14 *108:15 0.000640895
15 *108:16 0.00152531
16 *108:17 0.000739891
17 *108:18 0.00156525
18 *108:19 0.00110144
19 *108:20 0.0009695
20 *108:21 0.000969604
21 *108:22 0.00113424
22 *108:23 0.000884696
23 *108:24 0.000808206
24 *108:25 6.05242e-05
25 *108:26 0.00087447
26 *108:27 0.000882818
27 *108:28 0.00113462
28 *108:29 0.000877601
29 *108:30 0.000969604
30 *108:31 0.00114099
31 *108:32 0.000373893
32 *108:33 0.000172146
33 *108:34 0.000258654
34 *108:35 3.34622e-05
35 *108:36 0.000194686
36 *108:37 0.00227957
37 *108:38 7.92728e-05
38 *108:39 0.000836068
39 *108:4 *83:35 0.00128615
40 *108:8 *85:17 0.001222
41 *108:12 *91:8 0.00106892
42 *108:12 *114:13 0.00114215

*RES
1 *108:16 *108:18 5.62387
2 *108:14 *108:18 7.38764
3 *108:14 *108:32 1.01316
4 *108:32 *108:15 3.88584
5 *108:17 *108:15 5.62387
6 *108:17 *108:13 5.62387
7 *108:12 *108:13 8.9869
8 *108:12 *108:4 6.98351
9 *108:5 *108:4 5.68946
10 *108:5 *108:6 5.61911
11 *108:7 *108:6 5.62387
12 *108:7 *108:26 5.62387
13 *108:19 *108:26 5.62387
14 *108:19 *108:27 5.62387
15 *108:20 *108:27 5.62387
16 *108:20 *108:28 5.62387
17 *108:21 *108:28 5.62387
18 *108:21 *108:29 5.62387
19 *108:22 *108:29 5.62387
20 *108:22 *108:30 5.62387
21 *108:23 *108:30 5.62387
22 *108:23 *108:31 5.62387
23 *108:24 *108:31 5.62387
24 *108:24 *108:10 5.62387
25 *108:11 *108:10 6.8033
26 *108:8 *108:11 9.24434
27 *108:9 *108:8 11.0529
28 *108 *108:9 0.194839
29 *108:16 *108:25 5.62387
30 *108:34 *108:25 7.06514
31 *108:33 *108:34 0.771948
32 *706:A3 *108:33 0.0502525
33 *108:34 *108:35 1.01193
34 *108:37 *108:35 11.5555992
35 *585:Q *108:37 6.98351
36 *108:37 *108:38 2.71469
37 *108:39 *108:38 7.16547
38 *108:39 *108:36 9.26955
39 *674:A *108:36 6.98351
*END

*D_NET *109 0.0289632

*CONN
*P *109 O *C 913.64 0 *L 0.005
*I *711:A1 I *C 729.4 151.2 *L 0.00283 *D CKAN2D1BWP7T
*I *672:A2 I *C 740.6 151.2 *L 0.00339 *D CKXOR2D1BWP7T
*I *584:Q O *C 732.2 148.96 *L 0 *D DFKCNQD1BWP7T

*CAP
1 *109 0.00153685
2 *711:A1 0.000420661
3 *584:Q 0.000125438
4 *109:4 7.16423e-05
5 *109:5 8.89255e-05
6 *109:6 0.00108434
7 *109:7 0.00104246
8 *109:8 0.000996566
9 *109:9 0.000623792
10 *109:10 0.000516387
11 *109:11 0.000325075
12 *109:12 0.000457268
13 *109:13 0.000985732
14 *109:14 0.000663846
15 *109:15 0.000571919
16 *109:16 0.000516387
17 *109:17 0.0012216
18 *109:18 0.00144361
19 *109:19 0.00109382
20 *109:20 0.000884706
21 *109:22 0.00131123
22 *109:23 0.000877624
23 *109:24 0.000304861
24 *109:25 5.37962e-05
25 *109:26 4.6503e-05
26 *109:27 2.31694e-05
27 *109:28 0.000172129
28 *109:29 0.000490967
29 *109:31 0.000472816
30 *109:32 0.00073441
31 *109:33 0.000216991
32 *109:34 7.41046e-06
33 *109:35 0.00106865
34 *109:36 0.000745619
35 *109:37 7.20644e-05
36 *109:17 *88:10 0.00140864
37 *109:4 *175:4 0.00198417
38 *109:10 *41:5 0.00118052
39 *109:15 *86:18 0.00014812
40 *109:15 *86:15 0.00010482
41 *109:10 *86:15 0.00018492
42 *109:10 *86:17 0.00017804
43 *109:11 *86:17 0.00018492
44 *109:12 *86:13 0.00028662
45 *109:11 *86:13 7.141e-05
46 *109:13 *86:13 3.889e-05
47 *109:13 *86:19 8.076e-05
48 *109:14 *86:16 9.759e-05
49 *109:15 *86:16 0.00014699
50 *109:14 *86:11 0.00017804
51 *109:16 *86:11 0.00018492
52 *109:16 *86:12 0.00017804
53 *109:12 *86:12 7.417e-05
54 *109:11 *86:12 0.00021738
55 *109:12 *86:14 3.744e-05
56 *109:13 *86:14 0.00020823
57 *109 *86:18 0.00037711
58 *109 *86:16 0.000142120029

*RES
1 *109:31 *109:28 7.19128
2 *109:28 *109:30 0.265949
3 *711:A1 *109:30 1.758
4 *109:36 *109:31 9.68521
5 *109:33 *109:36 6.98353
6 *109:32 *109:33 2.0782
7 *109:35 *109:32 7.39903
8 *109:35 *109:37 3.2992
9 *109:9 *109:37 0.233719
10 *109:9 *109:6 3.00798
11 *109:4 *109:6 4.86336
12 *109:4 *109:8 0.207751
13 *109:8 *109:7 6.38416
14 *109:25 *109:7 7.74775
15 *109:5 *109:25 0.233719
16 *109:5 *109:27 1.63673
17 *109:27 *109:29 0.207751
18 *109:29 *109:17 1.83729
19 *109:18 *109:17 5.62387
20 *109:18 *109:22 5.62387
21 *109:19 *109:22 5.62387
22 *109:19 *109:23 5.62387
23 *109:20 *109:23 5.62387
24 *109:20 *109:24 5.62387
25 *109:21 *109:24 1.63279
26 *109:13 *109:21 15.1954737
27 *109:12 *109:13 5.62387
28 *109:12 *109:11 5.62387
29 *109:16 *109:11 5.62387
30 *109:16 *109:10 5.62387
31 *109:14 *109:10 5.62387
32 *109:14 *109:15 5.62387
33 *109 *109:15 11.0398
34 *109:33 *109:34 0.415733
35 *672:A2 *109:34 6.98353
36 *109:31 *109:26 7.60701
37 *584:Q *109:26 0.505928
*END

*D_NET *110 0.0272991

*CONN
*P *110 O *C 870.52 0 *L 0.005
*I *711:A2 I *C 728.28 151.2 *L 0.00317 *D CKAN2D1BWP7T
*I *677:A I *C 726.6 155.68 *L 0.00803 *D HA1D0BWP7T
*I *583:Q O *C 731.08 164.64 *L 0 *D DFKCNQD1BWP7T

*CAP
1 *110 0.00163704
2 *110:4 0.00106704
3 *110:5 7.17878e-05
4 *110:6 0.00118415
5 *110:7 4.24138e-05
6 *110:8 0.000158974
7 *110:9 1.59182e-05
8 *110:10 9.97053e-05
9 *110:11 0.00227276
10 *110:12 0.00113203
11 *110:13 0.00117139
12 *110:14 0.00121103
13 *110:15 0.00172655
14 *110:17 0.000235096
15 *110:18 0.000128247
16 *110:19 0.00071767
17 *110:20 0.000629097
18 *110:21 0.000516803
19 *110:22 0.00059518
20 *110:23 0.000892354
21 *110:24 0.000722317
22 *110:25 0.000629097
23 *110:26 0.00105025
24 *110:27 0.000348292
25 *110:28 0.00027914
26 *110:29 0.000107474
27 *110:30 4.76158e-05
28 *110:31 0.000542397
29 *110:33 1.02306e-05
30 *110:34 0.00050893
31 *110:35 0.00013064
32 *110:36 0.000411549
33 *110:37 7.5776e-05
34 *110:28 *187:12 0.00066325
35 *110:4 *23:130 0.00154296
36 *110:12 *84:9 0.00156649
37 *110:19 *87:16 0.00016043
38 *110:19 *87:12 0.00010179
39 *110:20 *87:12 0.0001992
40 *110:20 *87:14 0.0001729
41 *110:21 *87:14 0.0001992
42 *110:22 *87:10 0.00029384
43 *110:21 *87:10 6.935e-05
44 *110:23 *87:10 4.189e-05
45 *110:23 *87:19 4.482e-05
46 *110:24 *87:13 0.000106
47 *110:19 *87:13 0.00015057
48 *110:24 *87:8 0.0001729
49 *110:25 *87:8 0.0001992
50 *110:25 *87:9 0.0001729
51 *110:22 *87:9 7.989e-05
52 *110:21 *87:9 0.00022285
53 *110:22 *87:11 3.636e-05
54 *110:26 *87:11 2.668e-05
55 *110:23 *87:11 0.00018244
56 *110 *87:16 0.00038656
57 *110 *87:13 0.000137689997

*RES
1 *110:5 *110:37 0.207873
2 *110:37 *110:4 0.980907
3 *110:6 *110:4 5.62376
4 *110:6 *110:13 5.62376
5 *110:14 *110:13 5.62376
6 *110:14 *110:15 5.62376
7 *110:16 *110:15 8.12588
8 *110:17 *110:16 8.1043
9 *110:26 *110:17 5.62376
10 *110:26 *110:23 5.62376
11 *110:22 *110:23 5.62376
12 *110:22 *110:21 5.62376
13 *110:25 *110:21 5.62376
14 *110:25 *110:20 5.62376
15 *110:24 *110:20 5.62376
16 *110:24 *110:19 5.62376
17 *110 *110:19 11.0399
18 *110:12 *110:5 6.41674
19 *110:12 *110:35 0.233823
20 *110:18 *110:35 0.389795
21 *110:18 *110:33 0.233823
22 *110:31 *110:33 2.07818
23 *110:7 *110:31 0.207873
24 *110:7 *110:8 1.33055
25 *110:11 *110:8 17.9016285
26 *110:11 *110:34 0.194761
27 *110:34 *110:27 8.86695
28 *110:27 *110:30 1.26499
29 *110:36 *110:30 7.81475
30 *583:Q *110:36 6.98354
31 *110:34 *110:9 0.316589
32 *110:10 *110:9 0.0732061
33 *110:10 *110:32 0.220711
34 *677:A *110:32 6.98354
35 *110:11 *110:28 1.12076
36 *110:29 *110:28 0.126199
37 *711:A2 *110:29 6.98354
*END

*D_NET *111 0.0263982

*CONN
*P *111 O *C 826.84 0 *L 0.005
*I *709:A1 I *C 717.08 132.16 *L 0.00251 *D AN4D0BWP7T
*I *659:A2 I *C 728.28 135.52 *L 0.00339 *D CKXOR2D1BWP7T
*I *582:Q O *C 732.76 142.24 *L 0 *D DFKCNQD1BWP7T

*CAP
1 *111 6.42996e-05
2 *709:A1 0.000694813
3 *582:Q 6.3088e-05
4 *111:4 0.000224091
5 *111:5 0.000116709
6 *111:6 0.00150169
7 *111:7 0.00147661
8 *111:8 0.000497181
9 *111:9 1.32431e-06
10 *111:10 0.000568778
11 *111:11 0.00149608
12 *111:12 0.00028839
13 *111:13 0.000814903
14 *111:14 0.000113355
15 *111:15 0.000140546
16 *111:16 0.000493912
17 *111:17 0.00184657
18 *111:18 0.00112688
19 *111:19 0.00158123
20 *111:20 0.000170921
21 *111:22 0.000159537
22 *111:23 1.89067e-05
23 *111:24 0.000338009
24 *111:25 2.3894e-05
25 *111:26 1.16934e-05
26 *111:27 4.22653e-06
27 *111:28 4.96758e-05
28 *111:29 0.00045314
29 *111:30 0.000354042
30 *111:31 0.000131135
31 *111:32 0.000590559
32 *111:33 6.80471e-05
33 *111:34 0.000375457
34 *111:36 0.000304874
35 *111:37 0.000579119
36 *111:38 2.50774e-06
37 *111:4 *7:62 0.00118592
38 *111:12 *43:3 0.0010711
39 *111:18 *88:6 0.00020515
40 *111:19 *88:6 0.00046024
41 *111:12 *88:4 2.154e-05
42 *111:18 *88:4 0.00032696
43 *111:13 *88:11 0.0001992
44 *111:14 *88:11 0.0001729
45 *111:16 *88:12 0.00014785
46 *111:14 *88:12 7.989e-05
47 *111:17 *88:12 0.0001039
48 *111:17 *88:10 7.431e-05
49 *111:20 *88:10 3.905e-05
50 *111:12 *88:5 1.93e-06
51 *111:18 *88:5 0.00019189
52 *111:19 *88:5 0.00018193
53 *111:21 *88:5 0.00036937
54 *111:12 *88:13 1.021e-05
55 *111:15 *88:13 0.0001729
56 *111:15 *88:14 0.0001992
57 *111:16 *88:14 6.935e-05
58 *111:14 *88:14 0.00022285
59 *111:16 *88:15 0.00011688
60 *111:17 *88:15 0.00024907
61 *111:22 *88:15 8.223e-05
62 *111:5 *88:16 3.804e-05
63 *111:23 *88:16 1.785e-05
64 *111:24 *88:16 5.212e-05
65 *111:20 *88:16 5.15e-06
66 *111:22 *88:16 3.877e-05
67 *111:12 *88:17 4.667e-05
68 *111:19 *88:19 7.45e-06
69 *111:5 *88:8 2.504e-05
70 *111:5 *88:24 4.256e-05
71 *111:7 *88:24 3.366e-05
72 *111:5 *88:25 5.443e-05
73 *111:7 *88:25 4.642e-05
74 *111:25 *88:25 1.01e-06
75 *111:5 *88:26 7.8e-06
76 *111:7 *88:26 9.18e-06
77 *111:24 *88:26 3.194e-05
78 *111:5 *88:27 3.88e-06
79 *111:19 *88 5.99e-05
80 *111:5 *541:Q 2.80000034e-06
81 *111:4 *175:3 0.00185284
82 *111:6 *29:23 0.00089911
83 *111:26 *284:2 0.0004196

*RES
1 *111:11 *111:8 0.207892
2 *111:8 *111:6 3.03372
3 *111:27 *111:6 9.02
4 *111:4 *111:27 0.233611
5 *111:4 *111:7 2.20189
6 *111:25 *111:7 9.61822
7 *111:5 *111:25 0.233611
8 *111:5 *111:24 1.60366
9 *111:23 *111:24 1.48793
10 *111:23 *111:20 0.207892
11 *111:20 *111:22 0.636536
12 *111:22 *111:17 16.0267
13 *111:16 *111:17 5.6238
14 *111:16 *111:14 5.6238
15 *111:15 *111:14 5.6238
16 *111:15 *111:13 5.6238
17 *111:13 *111:12 7.65745
18 *111:12 *111:21 1.24682
19 *111:21 *111:18 17.5572357
20 *111:19 *111:18 11.0528
21 *111 *111:19 0.194765
22 *111:11 *111:38 12.9973
23 *111:37 *111:38 1.03919
24 *111:28 *111:37 6.98341
25 *582:Q *111:28 0.2529
26 *111:36 *111:37 0.636536
27 *111:33 *111:36 0.207892
28 *111:32 *111:33 1.6626
29 *111:32 *111:35 0.181906
30 *111:34 *111:35 0.636536
31 *111:10 *111:34 8.8539
32 *111:10 *111:26 0.32952
33 *111:30 *111:26 0.917297
34 *111:29 *111:30 6.98341
35 *111:29 *111:9 8.0226
36 *709:A1 *111:9 3.54193
37 *111:10 *111:31 7.1913
38 *659:A2 *111:31 6.98341
*END

*D_NET *112 0.0199771

*CONN
*P *112 O *C 783.16 0 *L 0.005
*I *709:A2 I *C 715.96 132.16 *L 0.00271 *D AN4D0BWP7T
*I *661:A I *C 718.2 147.84 *L 0.00803 *D HA1D0BWP7T
*I *581:Q O *C 720.44 134.4 *L 0 *D DFKCNQD1BWP7T

*CAP
1 *112 6.42758e-05
2 *112:4 0.000671187
3 *112:5 0.000578009
4 *112:6 0.000628507
5 *112:7 3.2247e-05
6 *112:8 4.32625e-06
7 *112:9 0.000770291
8 *112:10 0.000578009
9 *112:11 0.000465672
10 *112:12 0.00111843
11 *112:13 0.000631742
12 *112:14 0.00238253
13 *112:15 0.00126628
14 *112:16 0.000751569
15 *112:18 0.00137568
16 *112:19 0.000212277
17 *112:20 0.000198062
18 *112:21 0.000125316
19 *112:23 0.000468253
20 *112:24 0.000377184
21 *112:25 1.556e-05
22 *112:26 0.000978206
23 *112:27 5.4678e-05
24 *112:28 0.000279607
25 *112:29 0.000292258
26 *112:30 0.000396052
27 *112:15 *89:5 0.00035101
28 *112:17 *89:5 0.00039356
29 *112:19 *89:5 5.21e-06
30 *112:9 *89:6 0.00013018
31 *112:10 *89:6 0.00019922
32 *112:10 *89:7 0.00022111
33 *112:11 *89:7 0.00019922
34 *112:6 *89:8 0.00016657
35 *112:11 *89:8 8.868e-05
36 *112:12 *89:8 0.00011986
37 *112:4 *89:9 0.00010601
38 *112:9 *89:9 0.00016952
39 *112:19 *89:9 1.272e-05
40 *112:4 *89:10 0.00022111
41 *112:5 *89:10 0.00019922
42 *112:5 *89:11 0.00022111
43 *112:6 *89:11 7.99e-05
44 *112:11 *89:11 0.00025174
45 *112:6 *89:12 0.00013215
46 *112:8 *89:12 4.165e-05
47 *112:12 *89:12 0.0001177
48 *112:14 *89:12 3.71e-06
49 *112:19 *89:13 1.226e-05
50 *112:15 *89:14 7.44e-06
51 *112:19 *89:15 5.59e-06
52 *112:19 *89:16 2.509e-05
53 *112:8 *89:17 1.177e-05
54 *112:12 *89:17 1.177e-05
55 *112:14 *89:18 1.792e-05
56 *112:12 *89:19 6.121e-05
57 *112:14 *89:19 3.84e-06
58 *112:14 *89:20 9.928e-05
59 *112:15 *89 5.97999697e-05
60 *112:7 *113:4 0.0010058
61 *112:13 *284:2 0.000508

*RES
1 *112:26 *112:27 3.35114
2 *112:24 *112:27 0.18195
3 *112:24 *112:25 0.636389
4 *661:A *112:25 6.9835
5 *112:23 *112:26 0.207818
6 *112:29 *112:23 8.4253
7 *112:29 *112:30 1.03909
8 *112:30 *112:13 2.57999
9 *112:7 *112:13 2.81053
10 *112:7 *112:16 0.207818
11 *112:16 *112:21 3.11728
12 *112:18 *112:21 0.233686
13 *112:18 *112:14 5.29404
14 *112:8 *112:14 9.86412
15 *112:12 *112:8 11.4546566
16 *112:6 *112:12 5.62386
17 *112:6 *112:11 5.62386
18 *112:5 *112:11 5.62386
19 *112:5 *112:10 5.62386
20 *112:4 *112:10 5.62386
21 *112:4 *112:9 5.62386
22 *112:19 *112:9 1.28519
23 *112:17 *112:19 0.207818
24 *112:15 *112:17 9.76764
25 *112 *112:15 0.194884
26 *112:30 *112:28 7.60696
27 *581:Q *112:28 6.9835
28 *112:29 *112:22 7.60696
29 *112:20 *112:22 0.415637
30 *709:A2 *112:20 6.9835
*END

*D_NET *113 0.0180491

*CONN
*P *113 O *C 740.04 0 *L 0.005
*I *709:A3 I *C 715.4 132.72 *L 0.00275 *D AN4D0BWP7T
*I *670:A I *C 715.96 151.2 *L 0.00803 *D HA1D0BWP7T
*I *580:Q O *C 709.8 157.92 *L 0 *D DFKCNQD1BWP7T

*CAP
1 *113 0.000215452
2 *113:4 0.000571354
3 *113:6 0.000297821
4 *113:7 6.73084e-05
5 *113:8 0.0001185
6 *113:9 0.000244618
7 *113:10 0.000710824
8 *113:12 0.000557601
9 *113:13 0.000624909
10 *113:14 0.00049947
11 *113:15 0.000676051
12 *113:16 0.000686158
13 *113:17 0.000727116
14 *113:18 0.000624909
15 *113:19 9.2351e-05
16 *113:20 0.00164776
17 *113:21 0.000730184
18 *113:23 7.09793e-05
19 *113:24 0.000567935
20 *113:25 0.000823867
21 *113:26 0.000166699
22 *113:27 0.000358165
23 *113:28 3.74885e-05
24 *113:29 0.000191088
25 *113:30 4.20143e-05
26 *113:31 0.000461629
27 *113:32 0.000252941
28 *113:33 0.000736872
29 *113:9 *7:49 0.00078218
30 *113:4 *112:7 0.0010058
31 *113:12 *90:9 0.00011205
32 *113:13 *90:9 0.00022111
33 *113:13 *90:10 0.00019031
34 *113:14 *90:10 0.00022111
35 *113:15 *90:11 0.00016302
36 *113:14 *90:11 7.633e-05
37 *113:16 *90:11 0.00013215
38 *113:17 *90:12 0.0001189
39 *113:12 *90:12 0.00016174
40 *113:17 *90:13 0.00019031
41 *113:18 *90:13 0.00022111
42 *113:18 *90:14 0.00019031
43 *113:15 *90:14 8.868e-05
44 *113:14 *90:14 0.00024641
45 *113:15 *90:7 0.0001145
46 *113:16 *90:7 0.00017934
47 *113:4 *90:7 8.815e-05
48 *113:19 *90:7 4.174e-05
49 *113:20 *90:15 0.00033554
50 *113:20 *90:17 4.6e-06
51 *113:12 *90 0.00032438
52 *113:20 *90 3.72799814e-05

*RES
1 *113:10 *113:28 0.181976
2 *113:27 *113:28 0.636495
3 *113:32 *113:27 7.39913
4 *113:32 *113:31 8.24341
5 *113:26 *113:31 0.415729
6 *113:24 *113:26 2.06532
7 *709:A3 *113:24 6.98357
8 *113:8 *113:24 0.20778
9 *113:33 *113:8 10.7113
10 *113:7 *113:33 0.233753
11 *113:7 *113:6 0.696536
12 *113:5 *113:6 1.56358
13 *113:5 *113:4 0.20778
14 *113:4 *113:19 3.96165
15 *113:19 *113:16 11.0389919
16 *113:15 *113:16 5.62389
17 *113:15 *113:14 5.62389
18 *113:18 *113:14 5.62389
19 *113:18 *113:13 5.62389
20 *113:17 *113:13 5.62389
21 *113:17 *113:12 5.62389
22 *113:20 *113:12 11.0528212
23 *113 *113:20 0.818303
24 *113:10 *113:23 2.28609
25 *113:23 *113:29 0.20778
26 *113:29 *113:30 0.636495
27 *670:A *113:30 6.98357
28 *113:30 *113:9 0.126152
29 *113:11 *113:9 0.705137
30 *113:11 *113:25 6.98357
31 *113:25 *113:21 9.06171
32 *113:21 *113:22 1.87036
33 *580:Q *113:22 6.98357
*END

*D_NET *114 0.0182936

*CONN
*P *114 O *C 696.36 0 *L 0.005
*I *709:A4 I *C 714.84 132.16 *L 0.00277 *D AN4D0BWP7T
*I *681:A I *C 702.52 147.84 *L 0.00803 *D HA1D0BWP7T
*I *579:Q O *C 714.28 165.76 *L 0 *D DFKCNQD1BWP7T

*CAP
1 *114 0.00158476
2 *114:4 0.000647814
3 *114:5 0.000320517
4 *114:6 0.000446739
5 *114:7 0.00063322
6 *114:8 0.000492674
7 *114:9 0.000681446
8 *114:10 0.000226804
9 *114:11 0.000660791
10 *114:12 0.000644536
11 *114:13 0.000312614
12 *114:14 0.000396537
13 *114:15 8.47317e-05
14 *114:16 0.000466271
15 *114:17 0.000101481
16 *114:18 0.000466092
17 *114:20 0.000499589
18 *114:21 0.000722487
19 *114:22 3.40813e-05
20 *114:23 9.64514e-05
21 *114:24 0.000308348
22 *114:25 0.000104624
23 *114:26 7.09915e-05
24 *114:27 0.000395594
25 *114:28 0.00294271
26 *114:8 *91:7 0.00038708
27 *114:8 *91:8 0.00011362
28 *114:9 *91:8 0.00018625
29 *114:9 *91:9 0.0001861
30 *114:10 *91:9 0.00018625
31 *114:11 *91:10 0.00014689
32 *114:10 *91:10 0.00011249
33 *114:12 *91:10 0.00011405
34 *114:13 *91:11 0.00010243
35 *114:8 *91:11 0.00016002
36 *114:13 *91:12 0.0001861
37 *114:14 *91:12 0.00018625
38 *114:14 *91:13 0.0001861
39 *114:11 *91:13 0.0001167
40 *114:10 *91:13 0.00014176
41 *114:11 *91:14 0.00010711
42 *114:15 *91:14 3.59e-06
43 *114:12 *91:14 9.871e-05
44 *114:12 *91:16 2.93e-05
45 *114:15 *91:18 1.91e-05
46 *114:12 *91:18 2.43e-06
47 *114 *91:11 0.000431639943
48 *114:13 *108:12 0.00114215
49 *114:4 *300:3 0.00060547

*RES
1 *114:28 *114:18 9.26966
2 *114:18 *114:19 0.831226
3 *709:A4 *114:19 6.98344
4 *114:26 *114:28 0.636357
5 *114:25 *114:26 0.207921
6 *114:21 *114:25 3.09134
7 *114:21 *114:23 0.233797
8 *114:23 *114:17 0.549571
9 *114:15 *114:17 0.268603
10 *114:12 *114:15 10.2078
11 *114:11 *114:12 5.62394
12 *114:11 *114:10 5.62394
13 *114:14 *114:10 5.62394
14 *114:14 *114:9 5.62394
15 *114:13 *114:9 5.62394
16 *114:13 *114:8 5.62394
17 *114 *114:8 11.04
18 *114:28 *114:5 15.0069485
19 *114:20 *114:5 1.32859
20 *114:20 *114:22 1.85755
21 *114:22 *114:27 0.207921
22 *114:27 *114:29 1.68856
23 *114:24 *114:29 0.181816
24 *114:24 *114:7 7.6198
25 *114:7 *579:Q 2.53009
26 *114:20 *114:4 9.76656
27 *114:16 *114:4 8.31203
28 *114:6 *114:16 1.37301
29 *681:A *114:6 6.98344
*END

*D_NET *115 0.0167749

*CONN
*P *115 O *C 652.68 0 *L 0.005
*I *705:B1 I *C 601.72 132.16 *L 0.00375 *D IND3D1BWP7T
*I *676:A2 I *C 614.04 135.52 *L 0.00339 *D CKXOR2D1BWP7T
*I *578:Q O *C 602.84 141.12 *L 0 *D DFKCNQD1BWP7T

*CAP
1 *115 5.75697e-05
2 *115:4 0.00115122
3 *115:5 0.000126909
4 *115:6 0.000716248
5 *115:7 0.000408651
6 *115:8 0.000724718
7 *115:9 0.000758699
8 *115:10 0.00104699
9 *115:11 0.000294891
10 *115:12 0.000820701
11 *115:13 0.000526573
12 *115:14 0.0016137
13 *115:16 0.000348742
14 *115:17 0.000671458
15 *115:18 4.14906e-05
16 *115:19 3.44236e-05
17 *115:20 0.000164682
18 *115:21 0.000453614
19 *115:22 0.000526622
20 *115:23 0.000906735
21 *115:24 7.12604e-05
22 *115:25 0.000201469
23 *115:26 3.47191e-06
24 *115:5 *155:9 0.00050362
25 *115:4 *28:12 0.00058939
26 *115:10 *92:4 0.00050044
27 *115:11 *92:5 2.154e-05
28 *115:10 *92:5 0.00040037
29 *115:12 *92:6 0.00019828
30 *115:13 *92:6 0.00022111
31 *115:10 *92:8 0.00019653
32 *115:14 *92:8 0.00050044
33 *115:15 *92:8 0.00039968
34 *115:11 *92:9 1.021e-05
35 *115:16 *92:9 0.00022111
36 *115:16 *92:10 0.00019828
37 *115:17 *92:10 0.00021874
38 *115:13 *92:10 0.0002222
39 *115:5 *92:11 5.72e-06
40 *115:18 *92:11 5.51e-06
41 *115:19 *92:11 8.83e-06
42 *115:11 *92:12 4.667e-05
43 *115:14 *92:14 3.425e-05
44 *115:17 *92:17 7.749e-05
45 *115:13 *92:17 5.807e-05
46 *115:14 *92 5.03099543e-05
47 *115:7 *140:2 0.00041518

*RES
1 *115:5 *115:18 0.207892
2 *115:18 *115:19 0.636536
3 *115:19 *115:6 9.99998
4 *115:17 *115:6 5.6238
5 *115:17 *115:13 5.6238
6 *115:16 *115:13 5.6238
7 *115:16 *115:12 5.6238
8 *115:12 *115:11 7.65745
9 *115:11 *115:15 1.24682
10 *115:15 *115:10 17.5572357
11 *115:14 *115:10 11.0528
12 *115 *115:14 0.194765
13 *115:5 *115:9 4.34082
14 *115:25 *115:9 1.4523
15 *115:25 *115:26 0.233611
16 *115:4 *115:26 7.05306
17 *115:4 *115:7 2.71653
18 *115:8 *115:7 8.63127
19 *115:8 *115:23 1.03919
20 *705:B1 *115:23 6.98341
21 *115:23 *115:20 9.47731
22 *115:20 *578:Q 0.506067
23 *115:4 *115:21 8.21736
24 *115:21 *115:22 0.207892
25 *115:22 *115:24 1.05205
26 *676:A2 *115:24 6.98341
*END

*D_NET *116 0.0125315

*CONN
*P *116 O *C 609.56 0 *L 0.005
*I *705:B2 I *C 602.84 132.16 *L 0.00434 *D IND3D1BWP7T
*I *682:A I *C 602.84 143.36 *L 0.00803 *D HA1D0BWP7T
*I *577:Q O *C 602.28 150.08 *L 0 *D DFKCNQD1BWP7T

*CAP
1 *116 0.00133825
2 *116:4 0.000874038
3 *116:5 0.00136736
4 *116:6 0.000766585
5 *116:7 0.000566098
6 *116:8 0.000328137
7 *116:9 0.000235853
8 *116:10 0.000412868
9 *116:11 0.000646677
10 *116:12 0.000566098
11 *116:14 0.00066871
12 *116:15 0.000221144
13 *116:16 3.40093e-06
14 *116:17 0.000214613
15 *116:18 8.64419e-05
16 *116:19 0.000191433
17 *116:20 5.67934e-05
18 *116:21 0.00080337
19 *116:22 3.02745e-05
20 *116:23 2.20747e-05
21 *116:4 *48:5 0.0003853
22 *116:6 *93:12 0.00274597

*RES
1 *577:Q *116:16 6.98347
2 *116:15 *116:16 0.220844
3 *116:15 *116:23 0.389805
4 *116:14 *116:23 1.8963
5 *116:20 *116:14 0.207873
6 *116:19 *116:20 0.610481
7 *682:A *116:19 6.98347
8 *116:10 *116:19 1.25987
9 *116:10 *116:22 0.181931
10 *116:21 *116:22 2.31204
11 *116:18 *116:21 0.207873
12 *116:17 *116:18 0.610481
13 *705:B2 *116:17 6.98347
14 *116:17 *116:4 4.05555
15 *116:5 *116:4 7.37479
16 *116:9 *116:5 8.21555
17 *116:13 *116:9 1.26173
18 *116:8 *116:13 10.8564177
19 *116:12 *116:8 5.62387
20 *116:12 *116:7 5.62387
21 *116:11 *116:7 5.62387
22 *116:11 *116:6 5.62387
23 *116 *116:6 11.0398655
*END

*D_NET *117 0.0126568

*CONN
*P *117 O *C 565.88 0 *L 0.005
*I *713:A1 I *C 588.84 132.16 *L 0.00435 *D ND2D1BWP7T
*I *680:A2 I *C 578.76 132.16 *L 0.00339 *D CKXOR2D1BWP7T
*I *576:Q O *C 579.88 134.4 *L 0 *D DFKCNQD1BWP7T

*CAP
1 *117 0.00165529
2 *117:4 0.000425195
3 *117:5 0.000544388
4 *117:6 0.00052211
5 *117:7 0.000584978
6 *117:8 0.000955893
7 *117:9 0.000511426
8 *117:10 0.000568257
9 *117:11 0.000628498
10 *117:12 9.29246e-05
11 *117:13 0.000130509
12 *117:14 0.000272232
13 *117:15 0.000150892
14 *117:16 0.000154706
15 *117:17 7.83001e-06
16 *117:18 0.000166299
17 *117:19 7.82496e-05
18 *117:20 0.000125861
19 *117:21 0.000663758
20 *117:22 2.53591e-05
21 *117:23 9.00704e-05
22 *117:24 5.80684e-05
23 *117:4 *94:9 0.00051047
24 *117:5 *94:10 0.0001125
25 *117:5 *94:11 0.00013877
26 *117:6 *94:11 0.00013877
27 *117:7 *94:12 0.00010791
28 *117:6 *94:12 8.594e-05
29 *117:8 *94:12 8.216e-05
30 *117:9 *94:14 0.00035528
31 *117:4 *94:14 0.00034523
32 *117:9 *94:15 9.63e-06
33 *117:10 *94:15 0.00013877
34 *117:10 *94:16 0.00013877
35 *117:7 *94:16 8.594e-05
36 *117:6 *94:16 0.00010566
37 *117:7 *94:7 8.005e-05
38 *117:11 *94:7 6.118e-05
39 *117:8 *94:7 9.099e-05
40 *117:9 *94:18 8.3e-07
41 *117:9 *94:21 0.00020639
42 *117:9 *94:24 4.826e-05
43 *117:5 *94:24 5.012e-05
44 *117 *94:14 0.00051047
45 *117 *94:17 3.636e-05
46 *117 *94:20 2.02999783e-05
47 *117:11 *203:8 0.0007833

*RES
1 *117:20 *117:22 0.610481
2 *117:21 *117:22 0.233816
3 *117:21 *117:23 2.46803
4 *117:23 *117:24 0.207873
5 *117:24 *117:18 7.61989
6 *713:A1 *117:18 6.98347
7 *117:14 *117:20 6.98347
8 *680:A2 *117:14 6.98347
9 *117:14 *117:15 0.818354
10 *117:15 *117:16 0.415578
11 *117:16 *117:17 0.220844
12 *576:Q *117:17 6.98347
13 *117:19 *117:20 0.623452
14 *117:19 *117:12 0.455671
15 *117:13 *117:12 0.999106
16 *117:11 *117:13 2.70168
17 *117:8 *117:11 11.0390234
18 *117:7 *117:8 5.62387
19 *117:7 *117:6 5.62387
20 *117:10 *117:6 5.62387
21 *117:10 *117:5 5.62387
22 *117:9 *117:5 5.62387
23 *117:9 *117:4 5.62387
24 *117 *117:4 11.0398655
*END

*D_NET *118 0.0175362

*CONN
*P *118 O *C 522.76 0 *L 0.005
*I *713:A2 I *C 587.16 132.16 *L 0.00474 *D ND2D1BWP7T
*I *684:A I *C 581.56 140 *L 0.00803 *D HA1D0BWP7T
*I *575:Q O *C 580.44 142.24 *L 0 *D DFKCNQD1BWP7T

*CAP
1 *118 0.00165529
2 *575:Q 6.29179e-05
3 *118:4 0.000404332
4 *118:5 0.000754561
5 *118:6 0.000805228
6 *118:7 0.000808487
7 *118:8 0.00112694
8 *118:9 0.000886964
9 *118:10 0.000805228
10 *118:11 0.000811897
11 *118:12 0.000723417
12 *118:13 0.000828618
13 *118:14 0.000265715
14 *118:15 0.000504101
15 *118:16 4.26862e-06
16 *118:17 0.000469018
17 *118:18 0.000192265
18 *118:19 3.78366e-05
19 *118:20 0.000379806
20 *118:21 0.000356392
21 *118:22 0.00120269
22 *118:23 6.54185e-05
23 *118:24 3.5715e-05
24 *118:4 *95:18 0.00144029
25 *118:8 *155:4 0.00113483
26 *118:8 *184:8 0.00177398

*RES
1 *118:5 *118:4 5.62387
2 *118 *118:4 11.0398655
3 *118:5 *118:10 5.62387
4 *118:6 *118:10 5.62387
5 *118:6 *118:11 5.62387
6 *118:7 *118:11 5.62387
7 *118:7 *118:12 5.62387
8 *118:12 *118:8 9.58425
9 *118:8 *118:16 4.76694
10 *118:15 *118:16 0.233816
11 *118:15 *118:13 3.66255
12 *118:9 *118:13 5.62387
13 *118:9 *118:14 5.62387
14 *118:23 *118:14 2.93668
15 *118:23 *118:24 0.207873
16 *118:24 *118:21 7.61989
17 *118:21 *118:22 1.45478
18 *118:18 *118:22 6.98347
19 *118:18 *713:A2 0.759058
20 *118:22 *118:19 10.9320545
21 *118:17 *118:19 2.02399
22 *118:20 *118:17 8.02267
23 *684:A *118:20 6.98347
24 *575:Q *118:17 0.253019
*END

*D_NET *119 0.0192188

*CONN
*P *119 O *C 479.08 0 *L 0.005
*I *708:A1 I *C 392.28 143.36 *L 0.00251 *D AN4D0BWP7T
*I *663:A2 I *C 413.56 135.52 *L 0.00339 *D CKXOR2D1BWP7T
*I *574:Q O *C 410.2 141.12 *L 0 *D DFKCNQD1BWP7T

*CAP
1 *119 0.00165529
2 *708:A1 0.000184132
3 *119:4 0.000513118
4 *119:5 0.000325274
5 *119:6 8.36043e-06
6 *119:7 0.00162973
7 *119:8 0.000501879
8 *119:9 0.00162806
9 *119:10 0.000879361
10 *119:11 0.000816039
11 *119:12 0.00124467
12 *119:13 0.000811897
13 *119:14 0.000762391
14 *119:15 0.00104586
15 *119:16 0.00053527
16 *119:17 3.84681e-05
17 *119:18 0.000613772
18 *119:19 0.000217649
19 *119:20 0.00058081
20 *119:21 4.54646e-06
21 *119:22 0.000426458
22 *119:23 0.00108653
23 *119:24 5.62751e-05
24 *119:25 0.000145588
25 *119:26 0.000322369
26 *119:8 *95:4 0.0006306
27 *119:4 *96:4 0.00255435

*RES
1 *663:A2 *119:20 6.98352
2 *119:20 *119:21 1.6625
3 *119:22 *119:21 7.19133
4 *119:26 *119:22 7.61999
5 *119:24 *119:26 0.415625
6 *119:23 *119:24 3.53301
7 *119:23 *119:25 0.389746
8 *119:25 *119:14 2.82162
9 *119:11 *119:14 5.62378
10 *119:11 *119:13 5.62378
11 *119:13 *119:9 12.4625
12 *119:9 *119:15 4.19809
13 *119:10 *119:15 5.62378
14 *119:10 *119:7 5.62378
15 *119:6 *119:7 9.0774
16 *119:5 *119:6 12.7520666
17 *119:8 *119:5 5.62378
18 *119:8 *119:4 5.62378
19 *119 *119:4 11.0399
20 *119:22 *119:19 8.02258
21 *574:Q *119:19 6.98352
22 *119:12 *574:Q 5.06008
23 *119:18 *119:12 8.02258
24 *119:17 *119:18 6.98352
25 *119:17 *119:16 2.25714
26 *708:A1 *119:16 0.778908
*END

*D_NET *120 0.0199552

*CONN
*P *120 O *C 435.4 0 *L 0.005
*I *708:A2 I *C 391.16 143.36 *L 0.00271 *D AN4D0BWP7T
*I *667:A I *C 405.72 147.84 *L 0.00803 *D HA1D0BWP7T
*I *573:Q O *C 406.28 157.92 *L 0 *D DFKCNQD1BWP7T

*CAP
1 *120 5.75387e-05
2 *120:4 0.00105231
3 *120:5 0.000928736
4 *120:6 6.64134e-05
5 *120:7 0.000225822
6 *120:8 0.000100398
7 *120:9 0.00158501
8 *120:10 0.00103591
9 *120:12 0.000195539
10 *120:13 0.000894415
11 *120:14 0.000549982
12 *120:15 0.000614713
13 *120:16 0.00055524
14 *120:17 0.00072407
15 *120:18 0.00069917
16 *120:19 0.00275643
17 *120:20 0.00105572
18 *120:21 0.000744133
19 *120:22 0.000278861
20 *120:23 1.6698e-05
21 *120:26 0.00025497
22 *120:27 0.000219135
23 *120:28 0.000417239
24 *120:29 0.000125256
25 *120:30 1.21975e-05
26 *120:31 0.000239744
27 *120:32 0.000135897
28 *120:10 *97:4 0.0004365
29 *120:11 *97:4 0.0004365
30 *120:12 *97:4 1.785e-05
31 *120:13 *97:5 0.0001008
32 *120:14 *97:5 0.00027154
33 *120:15 *97:6 1.534e-05
34 *120:14 *97:6 0.00027154
35 *120:16 *97:6 0.00025106
36 *120:17 *97:8 0.00010046
37 *120:13 *97:8 0.00026677
38 *120:12 *97:8 3.885e-05
39 *120:17 *97:9 0.00027154
40 *120:15 *97:9 0.00027154
41 *120:15 *97:10 0.00025087
42 *120:18 *97:10 8.445e-05
43 *120:16 *97:10 0.00020676
44 *120:12 *97:12 1.226e-05
45 *120:18 *97:13 7.451e-05
46 *120:10 *97:14 3.425e-05
47 *120:16 *97:15 8.454e-05
48 *120:13 *97:17 3.885e-05
49 *120:12 *97:17 1.125e-05
50 *120:10 *97 5.03100252e-05
51 *120:4 *74:5 0.00081528

*RES
1 *120:7 *120:30 0.44167
2 *120:30 *120:4 3.71162
3 *120:29 *120:4 0.445014
4 *120:28 *120:29 0.415689
5 *120:28 *120:25 7.59405
6 *120:21 *120:25 1.6625
7 *708:A2 *120:21 6.98338
8 *120:7 *120:31 0.610415
9 *120:22 *120:31 6.98338
10 *667:A *120:22 6.98338
11 *120:22 *120:6 0.81826
12 *120:6 *120:27 0.207845
13 *120:27 *120:20 0.554853
14 *120:24 *120:20 2.57542
15 *573:Q *120:24 6.98338
16 *120:31 *120:32 0.610415
17 *120:32 *120:9 0.415689
18 *120:9 *120:5 6.2891
19 *120:23 *120:5 3.894
20 *120:8 *120:23 0.44167
21 *120:8 *120:26 0.610415
22 *120:26 *120:19 16.8580589
23 *120:18 *120:19 5.6239
24 *120:18 *120:16 5.6239
25 *120:15 *120:16 5.6239
26 *120:15 *120:14 5.6239
27 *120:17 *120:14 5.6239
28 *120:17 *120:13 5.6239
29 *120:12 *120:13 1.28514
30 *120:11 *120:12 0.207845
31 *120:10 *120:11 9.76767
32 *120 *120:10 0.194983
*END

*D_NET *121 0.0147421

*CONN
*P *121 O *C 392.28 0 *L 0.005
*I *708:A3 I *C 390.6 142.8 *L 0.00275 *D AN4D0BWP7T
*I *678:A I *C 388.36 147.84 *L 0.00803 *D HA1D0BWP7T
*I *572:Q O *C 388.36 157.92 *L 0 *D DFKCNQD1BWP7T

*CAP
1 *121 5.758e-05
2 *121:4 0.00103588
3 *121:6 0.00019554
4 *121:7 0.000894376
5 *121:8 0.000552999
6 *121:9 0.000675307
7 *121:10 0.000974227
8 *121:11 0.000220061
9 *121:13 0.00216868
10 *121:14 0.000724085
11 *121:15 0.000552999
12 *121:16 0.00076224
13 *121:18 0.000227309
14 *121:19 0.000261393
15 *121:20 0.000361463
16 *121:21 0.000454716
17 *121:22 1.89948e-05
18 *121:23 0.000317153
19 *121:24 1.58841e-05
20 *121:4 *98:5 0.0004365
21 *121:5 *98:5 0.0004365
22 *121:6 *98:5 1.785e-05
23 *121:7 *98:6 0.0001008
24 *121:8 *98:6 0.00027154
25 *121:8 *98:7 0.00027154
26 *121:9 *98:7 0.00027154
27 *121:10 *98:8 3.514e-05
28 *121:9 *98:8 0.00022506
29 *121:11 *98:8 7.691e-05
30 *121:12 *98:8 5.686e-05
31 *121:13 *98:9 7.685e-05
32 *121:14 *98:10 0.00010046
33 *121:7 *98:10 0.00026677
34 *121:6 *98:10 3.885e-05
35 *121:14 *98:11 0.00027154
36 *121:15 *98:11 0.00027154
37 *121:15 *98:12 0.00027154
38 *121:9 *98:12 0.00020676
39 *121:12 *98:12 0.00016816
40 *121:10 *98:13 0.00012863
41 *121:13 *98:13 0.00012299
42 *121:6 *98:16 1.226e-05
43 *121:4 *98:21 3.425e-05
44 *121:7 *98:22 3.885e-05
45 *121:6 *98:22 1.125e-05
46 *121:4 *98 5.03100738e-05

*RES
1 *121:10 *121:13 4.46518
2 *121:18 *121:13 8.61469
3 *121:18 *121:21 0.623447
4 *121:21 *121:24 0.181982
5 *121:23 *121:24 0.428648
6 *708:A3 *121:23 6.98342
7 *121:21 *121:22 1.06506
8 *121:19 *121:22 0.597514
9 *121:19 *121:20 0.220733
10 *678:A *121:20 6.98342
11 *121:20 *121:16 1.37313
12 *121:17 *121:16 2.57547
13 *572:Q *121:17 6.98342
14 *121:11 *121:10 8.85390759
15 *121:11 *121:12 6.98342
16 *121:12 *121:9 6.78251
17 *121:15 *121:9 5.62384
18 *121:15 *121:8 5.62384
19 *121:14 *121:8 5.62384
20 *121:14 *121:7 5.62384
21 *121:6 *121:7 1.2852
22 *121:5 *121:6 0.207766
23 *121:4 *121:5 9.76769066
24 *121 *121:4 0.194799
*END

*D_NET *122 0.0162425

*CONN
*P *122 O *C 348.6 0 *L 0.005
*I *708:A4 I *C 390.04 143.36 *L 0.00277 *D AN4D0BWP7T
*I *688:A I *C 383.32 143.36 *L 0.00803 *D HA1D0BWP7T
*I *571:Q O *C 362.6 141.12 *L 0 *D DFKCNQD1BWP7T

*CAP
1 *122 0.0016553
2 *571:Q 0.000122795
3 *122:4 0.00042275
4 *122:5 0.000552998
5 *122:6 0.000461111
6 *122:7 0.000604242
7 *122:8 0.0014656
8 *122:9 0.000724091
9 *122:10 0.000552998
10 *122:11 0.00044375
11 *122:12 0.000581596
12 *122:13 0.00189306
13 *122:14 0.000165056
14 *122:15 3.20926e-05
15 *122:16 4.63913e-05
16 *122:17 0.000588037
17 *122:18 0.00044973
18 *122:19 0.000731342
19 *122:20 6.81715e-06
20 *122:21 0.000442971
21 *122:4 *99:3 0.00051047
22 *122:4 *99:4 0.0001008
23 *122:5 *99:4 0.00027154
24 *122:5 *99:5 0.00027154
25 *122:6 *99:5 0.00027154
26 *122:7 *99:6 4.619e-05
27 *122:8 *99:6 0.00017037
28 *122:9 *99:7 0.00010046
29 *122:4 *99:7 0.00026677
30 *122:9 *99:8 0.00027154
31 *122:10 *99:8 0.00027154
32 *122:10 *99:9 0.00027154
33 *122:7 *99:9 0.00022494
34 *122:6 *99:9 0.00028832
35 *122:8 *99:10 0.00016094
36 *122:11 *99:10 5.487e-05
37 *122:7 *99:12 4.46e-06
38 *122:11 *99:14 2.806e-05
39 *122:7 *99:15 5.717e-05
40 *122:6 *99:15 8.632e-05
41 *122:11 *99:17 3.3e-06
42 *122 *99:7 0.00051047
43 *122 *99:11 3.636e-05
44 *122 *99:13 2.03000436e-05

*RES
1 *122:19 *122:20 0.233722
2 *122:17 *122:20 1.87042
3 *122:16 *122:17 0.207801
4 *122:11 *122:16 1.02626
5 *122:11 *122:8 14.1563578
6 *122:7 *122:8 5.62379
7 *122:7 *122:6 5.62379
8 *122:10 *122:6 5.62379
9 *122:10 *122:5 5.62379
10 *122:9 *122:5 5.62379
11 *122:9 *122:4 5.62379
12 *122 *122:4 11.0398
13 *122:19 *122:14 9.25663
14 *571:Q *122:14 6.98357
15 *571:Q *122:13 0.495092
16 *122:12 *122:13 8.61292
17 *122:18 *122:12 8.23037
18 *688:A *122:18 6.98357
19 *122:12 *122:15 3.28895
20 *122:21 *122:15 8.23037
21 *708:A4 *122:21 6.98357
*END

*D_NET *123 0.013434

*CONN
*P *123 O *C 304.92 0 *L 0.005
*I *712:A1 I *C 292.6 135.52 *L 0.00435 *D ND2D1BWP7T
*I *687:A2 I *C 292.6 147.84 *L 0.00339 *D CKXOR2D1BWP7T
*I *570:Q O *C 294.28 150.08 *L 0 *D DFKCNQD1BWP7T

*CAP
1 *123 9.56839e-05
2 *123:4 0.000594796
3 *123:5 0.000424067
4 *123:6 0.000556661
5 *123:7 0.000455384
6 *123:8 0.00174524
7 *123:9 0.000556101
8 *123:10 0.00085322
9 *123:11 3.40872e-05
10 *123:12 0.000787815
11 *123:13 6.0132e-05
12 *123:14 0.000183565
13 *123:15 0.000218904
14 *123:16 1.22501e-05
15 *123:17 0.000813806
16 *123:18 0.00133441
17 *123:19 0.000372084
18 *123:20 0.000635567
19 *123:21 0.000141569
20 *123:4 *100:3 6.451e-05
21 *123:5 *100:3 9.034e-05
22 *123:6 *100:4 0.00022111
23 *123:7 *100:4 0.00022111
24 *123:4 *100:6 9.045e-05
25 *123:5 *100:6 0.00026677
26 *123:8 *100:6 3.795e-05
27 *123:4 *100:7 0.00022111
28 *123:9 *100:7 0.00022111
29 *123:9 *100:8 0.00022111
30 *123:7 *100:8 0.00026485
31 *123:4 *100:10 1.024e-05
32 *123:4 *100:12 1.086e-05
33 *123:4 *100:14 3.33e-06
34 *123:5 *100:14 3.5e-07
35 *123:6 *100:14 0.00022055
36 *123:7 *100:15 2.035e-05
37 *123:5 *100 0.00053009
38 *123:8 *100 0.000442389953
39 *123:11 *177:3 0.00040002

*RES
1 *123:19 *123:15 8.02264
2 *123:15 *570:Q 0.758937
3 *687:A2 *123:19 6.98357
4 *123:18 *123:19 4.57217
5 *712:A1 *123:18 6.98357
6 *123:17 *123:18 2.07831
7 *123:21 *123:17 7.59392
8 *123:20 *123:21 0.233753
9 *123:20 *123:13 3.2528
10 *123:11 *123:13 0.462108
11 *123:11 *123:14 0.20778
12 *123:14 *123:16 0.636495
13 *123:16 *123:12 10.2077026
14 *123:10 *123:12 5.62389
15 *123:10 *123:7 5.62389
16 *123:9 *123:7 5.62389
17 *123:9 *123:6 5.62389
18 *123:4 *123:6 5.62389
19 *123:4 *123:5 5.62389
20 *123:8 *123:5 11.0528212
21 *123 *123:8 0.402743
*END

*D_NET *124 0.0171868

*CONN
*P *124 O *C 261.8 0 *L 0.005
*I *712:A2 I *C 290.92 135.52 *L 0.00474 *D ND2D1BWP7T
*I *692:A I *C 282.52 147.84 *L 0.00803 *D HA1D0BWP7T
*I *569:Q O *C 285.32 156.8 *L 0 *D DFKCNQD1BWP7T

*CAP
1 *124 5.75618e-05
2 *124:4 0.00113597
3 *124:6 0.000214812
4 *124:7 0.000999317
5 *124:8 0.000624897
6 *124:9 0.000547393
7 *124:10 0.000629364
8 *124:11 0.000893148
9 *124:12 0.000768916
10 *124:13 0.000624897
11 *124:14 0.000743069
12 *124:15 0.000567757
13 *124:16 0.000559186
14 *124:17 0.000158151
15 *124:18 0.000558514
16 *124:20 1.00283e-05
17 *124:21 0.000127606
18 *124:22 0.000329418
19 *124:23 0.0012566
20 *124:24 7.96892e-05
21 *124:25 0.000394323
22 *124:26 0.000336551
23 *124:27 9.3955e-06
24 *124:28 0.000323704
25 *124:29 0.000358601
26 *124:30 1.20799e-06
27 *124:31 0.000215943
28 *124:4 *101:4 0.00039172
29 *124:5 *101:4 0.0004365
30 *124:6 *101:4 1.785e-05
31 *124:7 *101:5 6.373e-05
32 *124:8 *101:5 0.00022111
33 *124:8 *101:6 0.00019031
34 *124:9 *101:6 0.00022111
35 *124:10 *101:7 0.00016302
36 *124:9 *101:7 0.00011786
37 *124:11 *101:7 0.00013133
38 *124:12 *101:8 7.709e-05
39 *124:7 *101:8 0.00019637
40 *124:6 *101:8 1.091e-05
41 *124:12 *101:9 0.00019031
42 *124:13 *101:9 0.00022111
43 *124:13 *101:10 0.00019031
44 *124:10 *101:10 0.00013693
45 *124:9 *101:10 0.00015663
46 *124:10 *101:11 0.00011519
47 *124:14 *101:11 5.168e-05
48 *124:11 *101:11 0.00012239
49 *124:6 *101:13 1.053e-05
50 *124:4 *101:18 3.225e-05
51 *124:6 *101:20 4.78e-06
52 *124:6 *101:22 2.249e-05
53 *124:11 *101:29 6.271e-05
54 *124:4 *101 4.95799313e-05
55 *124:14 *143:5 0.00070714
56 *124:16 *177:4 0.00034783

*RES
1 *124:24 *124:28 0.103997
2 *124:28 *124:29 0.623455
3 *124:22 *124:29 1.03909
4 *124:21 *124:22 0.194884
5 *692:A *124:21 6.9835
6 *124:29 *124:15 1.17822
7 *124:19 *124:15 1.12072
8 *569:Q *124:19 6.9835
9 *124:23 *124:24 3.50704
10 *124:23 *124:27 0.103997
11 *124:26 *124:27 0.636389
12 *124:18 *124:26 6.9835
13 *124:18 *712:A2 2.53
14 *124:25 *124:26 0.831274
15 *124:31 *124:25 7.61989
16 *124:30 *124:31 0.207818
17 *124:30 *124:16 4.02039
18 *124:17 *124:16 0.941562
19 *124:17 *124:20 0.233686
20 *124:14 *124:20 2.68871
21 *124:11 *124:14 11.4546566
22 *124:10 *124:11 5.62386
23 *124:10 *124:9 5.62386
24 *124:13 *124:9 5.62386
25 *124:13 *124:8 5.62386
26 *124:12 *124:8 5.62386
27 *124:12 *124:7 5.62386
28 *124:6 *124:7 1.28519
29 *124:5 *124:6 0.207818
30 *124:4 *124:5 9.76764
31 *124 *124:4 0.194884
*END

*D_NET *125 0.0138383

*CONN
*P *125 O *C 218.12 0 *L 0.005
*I *702:A2 I *C 217.56 135.52 *L 0.00967 *D ND3D2BWP7T
*I *691:A2 I *C 214.76 143.36 *L 0.00339 *D CKXOR2D1BWP7T
*I *568:Q O *C 213.64 148.96 *L 0 *D DFKCNQD1BWP7T

*CAP
1 *125 5.6821e-05
2 *125:4 0.000175721
3 *125:5 0.00135978
4 *125:6 0.000481618
5 *125:7 0.000580872
6 *125:8 0.000656711
7 *125:9 0.000881641
8 *125:10 1.12229e-05
9 *125:12 0.000736031
10 *125:13 0.00171444
11 *125:14 0.000580872
12 *125:15 0.000195159
13 *125:17 0.00038396
14 *125:19 0.000778359
15 *125:20 6.1216e-06
16 *125:23 0.00012824
17 *125:24 0.000527321
18 *125:4 *79:9 0.00058489
19 *125:6 *102:5 0.00010046
20 *125:7 *102:5 0.00024368
21 *125:7 *102:6 0.00027154
22 *125:8 *102:6 0.00024368
23 *125:9 *102:7 4.619e-05
24 *125:8 *102:7 0.00016483
25 *125:10 *102:7 4.46e-06
26 *125:11 *102:7 5.176e-05
27 *125:5 *102:8 2.599e-05
28 *125:12 *102:9 8.851e-05
29 *125:6 *102:9 0.00025274
30 *125:13 *102:9 0.00052965
31 *125:12 *102:10 0.00027154
32 *125:14 *102:10 0.00024368
33 *125:14 *102:11 0.00027154
34 *125:8 *102:11 0.00030858
35 *125:11 *102:11 9.774e-05
36 *125:9 *102:12 0.00017489
37 *125:5 *102:12 8.006e-05
38 *125:15 *102 1.436e-05
39 *125:6 *102 0.00047452
40 *125:13 *102 1.922e-05
41 *125 *102 1.88500192e-05

*RES
1 *691:A2 *125:21 6.98357
2 *125:21 *125:22 0.220766
3 *125:20 *125:22 0.20778
4 *125:19 *125:20 3.10439
5 *125:24 *125:19 7.81485844
6 *125:4 *125:24 6.98357
7 *125:4 *125:5 5.30244
8 *125:9 *125:5 4.46525
9 *125:10 *125:9 7.19135
10 *125:10 *125:11 6.98357
11 *125:11 *125:8 6.78254
12 *125:14 *125:8 5.62389
13 *125:14 *125:7 5.62389
14 *125:12 *125:7 5.62389
15 *125:12 *125:6 5.62389
16 *125:13 *125:6 11.0528212
17 *125:13 *125:15 7.37316
18 *125:15 *125:16 0.415729
19 *125:16 *125 6.98357
20 *125:24 *125:23 7.39913
21 *702:A2 *125:23 6.98357
22 *125:17 *125:20 0.181976
23 *125:17 *125:18 1.05206
24 *568:Q *125:18 6.98357
*END

*D_NET *126 0.0149447

*CONN
*P *126 O *C 175 0 *L 0.005
*I *702:A3 I *C 217 134.4 *L 0.0103 *D ND3D2BWP7T
*I *696:A I *C 209.72 140 *L 0.00803 *D HA1D0BWP7T
*I *567:Q O *C 213.64 133.28 *L 0 *D DFKCNQD1BWP7T

*CAP
1 *126 2.74421e-05
2 *126:4 0.000548205
3 *126:5 0.000593407
4 *126:6 0.000247641
5 *126:7 0.000410052
6 *126:8 0.00152516
7 *126:9 0.000507615
8 *126:10 0.000593407
9 *126:11 0.000221575
10 *126:12 0.000357868
11 *126:13 0.00155013
12 *126:14 0.00119474
13 *126:15 8.53839e-05
14 *126:16 0.000116215
15 *126:17 3.32006e-05
16 *126:18 0.000427302
17 *126:19 0.000116138
18 *126:20 0.00166984
19 *126:21 0.000829302
20 *126:22 1.46256e-05
21 *126:23 0.000472096
22 *126:4 *103:12 8.757e-05
23 *126:5 *103:12 0.00024192
24 *126:5 *103:14 0.00024232
25 *126:6 *103:14 0.00024192
26 *126:7 *103:9 5.828e-05
27 *126:8 *103:13 0.00041971
28 *126:9 *103:13 8.773e-05
29 *126:4 *103:13 0.00023713
30 *126:9 *103:7 0.00024232
31 *126:10 *103:7 0.00024192
32 *126:10 *103:8 0.00024232
33 *126:11 *103:8 2.187e-05
34 *126:6 *103:8 0.00029002
35 *126:12 *103:16 4.973e-05
36 *126:4 *103:17 0.00041902
37 *126:12 *103:17 3.818e-05
38 *126 *103:17 4.788e-05
39 *126:12 *103 1.593e-05
40 *126 *103 0.000177539967

*RES
1 *126:13 *126:14 7.37472
2 *126:21 *126:14 5.30249
3 *126:21 *126:16 8.08406
4 *126:18 *126:16 0.670453
5 *126:23 *126:18 8.02267
6 *567:Q *126:23 6.98361
7 *126:18 *702:A3 1.51792
8 *126:21 *126:22 1.6627
9 *696:A *126:22 6.98361
10 *126:20 *126:13 16.7641335
11 *126:17 *126:20 0.20771
12 *126:17 *126:15 0.563017
13 *126:7 *126:15 2.11266
14 *126:7 *126:19 0.233802
15 *126:11 *126:19 0.610596
16 *126:6 *126:11 10.8564
17 *126:10 *126:6 5.62377
18 *126:10 *126:5 5.62377
19 *126:9 *126:5 5.62377
20 *126:9 *126:4 5.62377
21 *126:8 *126:4 9.80585
22 *126:8 *126:12 0.181874
23 *126 *126:12 1.25982
*END

*D_NET *127 0.0150028

*CONN
*P *127 O *C 131.32 0 *L 0.005
*I *710:A1 I *C 161 135.52 *L 0.00435 *D ND2D1BWP7T
*I *695:A2 I *C 166.6 140 *L 0.00339 *D CKXOR2D1BWP7T
*I *566:Q O *C 161 133.28 *L 0 *D DFKCNQD1BWP7T

*CAP
1 *127 0.00179062
2 *710:A1 0.00038236
3 *127:4 0.000295663
4 *127:5 0.000421514
5 *127:6 0.000351539
6 *127:7 0.000124812
7 *127:8 0.000514631
8 *127:9 0.000794037
9 *127:10 0.00114514
10 *127:11 0.000381513
11 *127:12 0.000275362
12 *127:13 3.84436e-05
13 *127:14 0.0010294
14 *127:15 1.67217e-05
15 *127:16 1.39894e-05
16 *127:17 7.96195e-05
17 *127:18 0.000110467
18 *127:19 1.62846e-05
19 *127:20 0.000346402
20 *127:21 0.000508647
21 *127:22 9.83632e-06
22 *127:23 0.000508975
23 *127:10 *81:15 0.00105877
24 *127:4 *80:10 0.00135631
25 *127:7 *104:12 0.00295866
26 *127:10 *130:8 0.0004731

*RES
1 *127:9 *127:6 5.62386
2 *127:8 *127:6 5.62386
3 *127:8 *127:5 5.62386
4 *127:4 *127:5 5.62386
5 *127:4 *127:7 5.62386
6 *127 *127:7 11.0399
7 *127:9 *127:14 5.62386
8 *127:14 *127:10 11.4546566
9 *127:10 *127:16 6.63743
10 *127:15 *127:16 0.233686
11 *127:15 *127:11 0.840537
12 *127:13 *127:11 1.62742
13 *127:13 *127:23 0.207818
14 *127:23 *127:12 8.8668
15 *127:18 *127:12 0.207818
16 *566:Q *127:18 6.9835
17 *127:12 *127:19 0.831274
18 *710:A1 *127:19 6.9835
19 *710:A1 *127:17 2.024
20 *127:20 *127:17 7.38621
21 *127:20 *127:21 0.415637
22 *127:21 *127:22 1.25984
23 *695:A2 *127:22 6.9835
*END

*D_NET *128 0.0186743

*CONN
*P *128 O *C 87.64 0 *L 0.005
*I *710:A2 I *C 159.32 135.52 *L 0.00474 *D ND2D1BWP7T
*I *699:A I *C 159.32 147.84 *L 0.00803 *D HA1D0BWP7T
*I *565:Q O *C 159.32 156.8 *L 0 *D DFKCNQD1BWP7T

*CAP
1 *128 0.00178653
2 *128:4 0.000250253
3 *128:5 0.000457407
4 *128:6 0.000295424
5 *128:7 0.000565033
6 *128:8 2.39894e-05
7 *128:9 0.000453618
8 *128:10 0.00013325
9 *128:11 0.000490175
10 *128:12 0.000312844
11 *128:13 0.000723608
12 *128:14 0.000639182
13 *128:15 0.000726007
14 *128:16 0.000342667
15 *128:17 0.000763927
16 *128:18 0.00078857
17 *128:19 8.81338e-05
18 *128:20 0.000585642
19 *128:21 0.000357878
20 *128:22 1.07407e-05
21 *128:23 9.85747e-05
22 *128:24 0.000119756
23 *128:25 0.000171443
24 *128:26 0.000429656
25 *128:27 0.000180057
26 *128:28 0.000317451
27 *128:4 *81:10 0.00174807
28 *128:10 *105:20 0.00045639
29 *128:5 *105:4 9.508e-05
30 *128:5 *105:21 0.00019454
31 *128:6 *105:21 0.00018346
32 *128:7 *105:5 0.00015059
33 *128:6 *105:5 7.803e-05
34 *128:8 *105:5 0.00011038
35 *128:8 *105:11 2.63e-06
36 *128:4 *105:10 0.00031647
37 *128:10 *105:10 0.00030541
38 *128:4 *105:22 1.816e-05
39 *128:11 *105:22 0.00018346
40 *128:11 *105:23 0.00019454
41 *128:7 *105:23 7.358e-05
42 *128:6 *105:23 0.00022639
43 *128:7 *105:6 0.00011704
44 *128:12 *105:6 2.82e-06
45 *128:8 *105:6 0.00012941
46 *128:4 *105:24 2.53e-06
47 *128:4 *105:26 0.00018347
48 *128:4 *105:27 4.539e-05
49 *128:5 *105:27 5.012e-05
50 *128:19 *105:8 3.46e-06
51 *128:20 *105:8 3.432e-05
52 *128:19 *105:30 6.3e-07
53 *128 *105:10 0.00045378
54 *128 *105:13 3.558e-05
55 *128 *105:14 1.90300164e-05
56 *128:12 *82:16 0.00214769

*RES
1 *128:24 *128:25 0.207873
2 *128:25 *128:26 0.428549
3 *128:26 *128:27 1.45478
4 *128:27 *128:28 0.636423
5 *699:A *128:28 6.98347
6 *128:28 *128:21 1.37308
7 *128:22 *128:21 1.12073
8 *565:Q *128:22 6.98347
9 *128:20 *128:24 2.06526
10 *128:19 *128:20 6.98347
11 *128:19 *710:A2 0.253019
12 *128:9 *128:20 1.46775
13 *128:23 *128:9 0.207873
14 *128:17 *128:23 1.85738
15 *128:17 *128:16 9.45504093
16 *128:15 *128:16 5.62387
17 *128:15 *128:14 5.62387
18 *128:18 *128:14 5.62387
19 *128:18 *128:13 5.62387
20 *128:12 *128:13 1.21877
21 *128:8 *128:12 8.96079
22 *128:7 *128:8 5.62387
23 *128:7 *128:6 5.62387
24 *128:11 *128:6 5.62387
25 *128:11 *128:5 5.62387
26 *128:4 *128:5 5.62387
27 *128:4 *128:10 5.62387
28 *128 *128:10 11.0398655
*END

*D_NET *129 0.020378

*CONN
*P *129 O *C 44.52 0 *L 0.005
*I *714:A1 I *C 150.36 143.36 *L 0.00435 *D ND2D1BWP7T
*I *707:A2 I *C 149.24 147.84 *L 0.00256 *D OA21D0BWP7T
*I *564:Q O *C 148.68 157.92 *L 0 *D DFKCNQD1BWP7T

*CAP
1 *129 0.00186146
2 *129:4 0.000161023
3 *129:5 0.000496986
4 *129:6 0.00024115
5 *129:7 0.000597423
6 *129:8 0.000934806
7 *129:9 5.10705e-05
8 *129:10 0.000459748
9 *129:11 0.000760888
10 *129:12 0.000663803
11 *129:13 0.000533627
12 *129:14 0.00180531
13 *129:15 0.000302759
14 *129:16 0.000649004
15 *129:17 0.000771483
16 *129:18 0.000417227
17 *129:19 0.000187751
18 *129:20 0.000691156
19 *129:21 8.098e-05
20 *129:4 *82:12 0.00197865
21 *129:9 *106:13 0.00045893
22 *129:5 *106:4 9.508e-05
23 *129:5 *106:10 0.00019635
24 *129:6 *106:10 0.00017993
25 *129:7 *106:7 9.428e-05
26 *129:6 *106:7 7.875e-05
27 *129:8 *106:7 0.00013485
28 *129:11 *106:14 0.00018769
29 *129:8 *106:14 0.00019528
30 *129:12 *106:14 0.00018769
31 *129:12 *106:15 0.0002025
32 *129:13 *106:15 0.0002025
33 *129:13 *106:16 8.002e-05
34 *129:14 *106:16 0.0002025
35 *129:14 *106:17 0.00012209
36 *129:15 *106:17 7.877e-05
37 *129:4 *106:9 0.00035438
38 *129:9 *106:9 0.00030143
39 *129:4 *106:5 1.835e-05
40 *129:10 *106:5 0.00017993
41 *129:10 *106:6 0.00019635
42 *129:7 *106:6 7.217e-05
43 *129:6 *106:6 0.00022536
44 *129:7 *106:8 0.00014715
45 *129:11 *106:8 0.00019521
46 *129:8 *106:8 0.00028568
47 *129:16 *106:19 0.0002025
48 *129:16 *106:20 0.0002025
49 *129:17 *106:20 8.002e-05
50 *129:13 *106:20 0.00024497
51 *129:17 *106:21 0.0002025
52 *129:14 *106:21 0.00028406
53 *129:15 *106:21 1.05e-06
54 *129:14 *106:22 4.63e-06
55 *129:18 *106:22 6.364e-05
56 *129:4 *106:24 2.53e-06
57 *129:4 *106:25 0.00018218
58 *129:4 *106:26 4.519e-05
59 *129:5 *106:26 5.012e-05
60 *129 *106:9 0.00044149
61 *129 *106:11 3.956e-05
62 *129 *106:12 1.15800383e-05

*RES
1 *129:18 *129:15 0.207758
2 *129:15 *129:20 1.37309
3 *129:22 *129:20 2.57563
4 *564:Q *129:22 6.98361
5 *129:15 *129:14 17.1697941
6 *129:17 *129:14 5.62388
7 *129:17 *129:13 5.62388
8 *129:16 *129:13 5.62388
9 *129:16 *129:12 5.62388
10 *129:11 *129:12 5.97338
11 *129:8 *129:11 16.858
12 *129:7 *129:8 5.62388
13 *129:7 *129:6 5.62388
14 *129:10 *129:6 5.62388
15 *129:10 *129:5 5.62388
16 *129:4 *129:5 5.62388
17 *129:4 *129:9 5.62388
18 *129 *129:9 11.0397
19 *129:21 *129:18 6.98361
20 *129:21 *707:A2 0.253083
21 *129:18 *129:19 8.43818
22 *129:19 *714:A1 0.758986
*END

*D_NET *130 0.0213506

*CONN
*P *130 O *C 0.84 0 *L 0.005
*I *714:A2 I *C 152.04 143.36 *L 0.00474 *D ND2D1BWP7T
*I *707:A1 I *C 150.36 147.84 *L 0.00259 *D OA21D0BWP7T
*I *650:A1 I *C 153.99 135.7825 *L 0.00344 *D NR2XD0BWP7T
*I *563:Q O *C 147.56 133.28 *L 0 *D DFKCNQD1BWP7T

*CAP
1 *130 0.00184343
2 *130:5 0.000694082
3 *130:6 0.000298701
4 *130:8 0.00100696
5 *130:9 0.00064871
6 *130:10 0.000397659
7 *130:11 0.000914838
8 *130:12 0.000961503
9 *130:13 0.000716528
10 *130:14 9.17566e-05
11 *130:15 0.000978831
12 *130:16 0.000805219
13 *130:17 0.000805219
14 *130:18 0.000805219
15 *130:19 0.00174951
16 *130:20 3.90992e-05
17 *130:21 0.000805219
18 *130:22 0.000812223
19 *130:23 0.000628204
20 *130:24 2.79883e-05
21 *130:25 0.000401203
22 *130:26 3.64832e-05
23 *130:27 0.000101152
24 *130:28 0.000574084
25 *130:29 0.000185032
26 *130:30 6.48372e-05
27 *130:31 0.000159407
28 *130:32 0.00013139
29 *130:33 5.83113e-05
30 *130:36 4.14621e-05
31 *130:5 *81:13 0.00119191
32 *130:11 *82:15 0.00071821
33 *130:14 *83:21 0.00074802
34 *130:5 *105:11 0.00143512
35 *130:8 *127:10 0.0004731

*RES
1 *130:27 *130:10 0.207873
2 *563:Q *130:10 6.98347
3 *130:10 *130:25 8.23037
4 *130:25 *130:24 1.79809
5 *130:20 *130:24 0.225898
6 *130:15 *130:20 7.17837
7 *130:15 *130:28 2.50678
8 *714:A2 *130:28 6.98347
9 *130:28 *130:30 2.0912
10 *130:30 *130:26 0.172666
11 *130:31 *130:26 0.450786
12 *130:29 *130:31 0.402607
13 *707:A1 *130:29 6.98347
14 *130:15 *130:33 0.59751
15 *130:32 *130:33 0.324613
16 *650:A1 *130:32 6.98347
17 *130:36 *130:27 7.61989
18 *130:35 *130:36 0.207873
19 *130:8 *130:35 5.79317
20 *130:8 *130:34 0.233816
21 *130:34 *130:7 3.31519
22 *130:9 *130:7 5.62387
23 *130:9 *130:6 5.62387
24 *130:5 *130:6 5.62387
25 *130:5 *130:13 5.62387
26 *130:11 *130:13 5.62387
27 *130:11 *130:12 5.62387
28 *130:19 *130:12 10.9359
29 *130:23 *130:19 11.0390234
30 *130:18 *130:23 5.62387
31 *130:18 *130:22 5.62387
32 *130:17 *130:22 5.62387
33 *130:17 *130:21 5.62387
34 *130:16 *130:21 5.62387
35 *130:16 *130:14 5.62387
36 *130 *130:14 11.0398655
*END

*D_NET *131 0.00134809

*CONN
*I *694:ZN O *C 701.96 142.8 *L 0 *D NR2XD1BWP7T
*I *690:A1 I *C 698.04 143.36 *L 0.00435 *D ND2D1BWP7T
*I *681:B I *C 703.9325 147.575 *L 0.00955 *D HA1D0BWP7T

*CAP
1 *131:3 7.49369e-05
2 *131:4 0.000253078
3 *131:6 0.000330901
4 *131:7 8.8143e-05
5 *131:8 0.000110958
6 *131:9 0.00049007

*RES
1 *690:A1 *131:4 6.98355
2 *131:4 *131:5 0.207815
3 *131:9 *131:5 8.43825054
4 *131:6 *131:9 6.98355
5 *694:ZN *131:6 6.98355
6 *131:6 *131:7 0.818383
7 *131:7 *131:8 0.207815
8 *131:8 *131:3 6.99346
9 *131:3 *681:B 0.0399148
*END

*D_NET *132 0.00244794

*CONN
*I *714:ZN O *C 150.92 142.8 *L 0 *D ND2D1BWP7T
*I *707:B I *C 151.2 148.12 *L 0.00283 *D OA21D0BWP7T
*I *704:I I *C 157.08 143.36 *L 0.00498 *D INVD1BWP7T
*I *703:A1 I *C 156.52 140 *L 0.00431 *D NR2D1BWP7T

*CAP
1 *703:A1 8.23955e-07
2 *132:4 7.23732e-05
3 *132:5 8.21408e-05
4 *132:6 0.00044197
5 *132:7 0.000148177
6 *132:8 0.000158589
7 *132:9 0.00098178
8 *132:10 0.000562102

*RES
1 *132:9 *132:8 8.85389709
2 *132:8 *707:B 0.126453
3 *714:ZN *132:9 6.98344
4 *132:9 *132:4 8.02263
5 *132:4 *132:6 0.280062
6 *132:5 *132:6 1.99691
7 *132:10 *132:5 8.23041
8 *132:7 *132:10 6.98344
9 *132:7 *704:I 0.505949
10 *132:5 *703:A1 0.253042
*END

*D_NET *133 0.00355047

*CONN
*I *713:ZN O *C 588.28 132.72 *L 0 *D ND2D1BWP7T
*I *705:A1 I *C 600.6 132.16 *L 0.00313 *D IND3D1BWP7T
*I *693:B1 I *C 588.84 140 *L 0.00338 *D INR2XD0BWP7T

*CAP
1 *693:B1 0.00130202
2 *133:3 3.6894e-05
3 *133:4 0.000402079
4 *133:5 9.6298e-05
5 *133:6 0.000605444
6 *133:7 5.84305e-05
7 *133:8 0.0010493

*RES
1 *693:B1 *133:7 6.98355
2 *133:6 *133:7 1.46765
3 *133:5 *133:6 0.207785
4 *133:4 *133:5 1.02621
5 *713:ZN *133:4 6.98355
6 *693:B1 *133:3 5.31299
7 *133:8 *133:3 9.6851902
8 *705:A1 *133:8 6.98355
*END

*D_NET *134 0.00073245

*CONN
*I *712:ZN O *C 292.04 134.96 *L 0 *D ND2D1BWP7T
*I *700:A2 I *C 292.6 132.16 *L 0.0134 *D NR2D3BWP7T

*CAP
1 *134:3 0.00073245

*RES
1 *134:3 *134:2 1.14306
2 *712:ZN *134:2 6.98348808
3 *700:A2 *134:3 6.98348808
*END

*D_NET *135 0.00554867

*CONN
*I *711:Z O *C 727.16 150.64 *L 0 *D CKAN2D1BWP7T
*I *706:A1 I *C 690.76 151.2 *L 0.00248 *D ND3D0BWP7T
*I *685:A2 I *C 690.76 159.04 *L 0.00317 *D CKAN2D1BWP7T

*CAP
1 *135:3 4.04569e-05
2 *135:4 0.000269549
3 *135:5 3.19954e-05
4 *135:6 0.000310465
5 *135:7 0.000808505
6 *135:9 0.000690883
7 *135:10 7.13294e-06
8 *135:11 0.000139559
9 *135:12 0.00103649
10 *135:13 3.15368e-05
11 *135:14 0.000309674
12 *135:15 3.1173e-05
13 *135:16 6.34214e-06
14 *135:17 0.000141852
15 *135:18 5.86767e-06
16 *135:19 0.000322026
17 *135:21 0.000163567
18 *135:7 *23:136 0.00018223
19 *135:3 *187:11 0.00082038
20 *135:3 *300:12 0.00019896

*RES
1 *135:6 *135:20 1.45475
2 *135:20 *135:5 0.0946419
3 *135:12 *135:5 0.139165
4 *135:12 *135:15 3.71496
5 *135:15 *135:18 0.139165
6 *135:21 *135:18 0.0686898
7 *135:21 *135:17 7.61992
8 *135:7 *135:17 6.9835
9 *135:7 *711:Z 3.54199
10 *135:6 *135:10 0.0686898
11 *135:3 *135:10 0.139165
12 *135:3 *135:4 2.42009
13 *135:14 *135:4 1.50272
14 *135:14 *135:13 0.139165
15 *135:19 *135:13 0.0946419
16 *135:19 *135:9 7.80182505
17 *135:9 *135:8 0.0816658
18 *135:11 *135:8 0.126189
19 *706:A1 *135:11 6.9835
20 *135:9 *135:16 2.70176
21 *685:A2 *135:16 6.9835
*END

*D_NET *136 0.00116289

*CONN
*I *710:ZN O *C 160.44 134.96 *L 0 *D ND2D1BWP7T
*I *703:A2 I *C 157.92 139.7475 *L 0.00469 *D NR2D1BWP7T

*CAP
1 *703:A2 2.07198e-05
2 *136:2 7.70858e-05
3 *136:3 8.11597e-05
4 *136:4 0.000228268
5 *136:5 3.7957e-05
6 *136:6 0.00071769

*RES
1 *136:3 *136:4 0.253042
2 *136:4 *136:5 0.77196
3 *136:6 *136:5 8.85389709
4 *710:ZN *136:6 6.98344
5 *136:2 *136:3 0.253042
6 *703:A2 *136:2 0.113484
*END

*D_NET *137 0.00313495

*CONN
*I *709:Z O *C 713.72 133.28 *L 0 *D AN4D0BWP7T
*I *690:A2 I *C 699.72 143.36 *L 0.00474 *D ND2D1BWP7T

*CAP
1 *690:A2 6.82398e-05
2 *137:2 0.00145505
3 *137:3 5.88568e-05
4 *137:4 0.00155281

*RES
1 *137:4 *137:2 11.1399517
2 *137:2 *709:Z 6.0721
3 *137:3 *137:4 6.98355
4 *690:A2 *137:3 0.252933
*END

*D_NET *138 0.00135091

*CONN
*I *708:Z O *C 388.92 142.24 *L 0 *D AN4D0BWP7T
*I *698:A2 I *C 385.56 135.52 *L 0.00997 *D ND2D2BWP7T

*CAP
1 *138:2 0.000347123
2 *138:3 0.0007209
3 *138:4 0.000148195
4 *138:5 0.000134687

*RES
1 *138:2 *708:Z 1.012
2 *138:5 *138:2 7.20426702
3 *138:4 *138:5 0.415639
4 *138:3 *138:4 2.06522
5 *698:A2 *138:3 6.98353
*END

*D_NET *139 0.00124532

*CONN
*I *706:ZN O *C 690.2 150.64 *L 0 *D ND3D0BWP7T
*I *686:A2 I *C 685.44 147.56 *L 0.0206 *D NR2XD3BWP7T

*CAP
1 *686:A2 2.92298e-05
2 *139:2 9.53923e-05
3 *139:3 0.0006776
4 *139:4 9.28488e-06
5 *139:5 0.000433815

*RES
1 *139:3 *139:5 6.98354
2 *139:5 *139:2 8.02260399
3 *139:2 *139:4 0.240056
4 *686:A2 *139:4 0.139431
5 *139:3 *706:ZN 2.53008
*END

*D_NET *140 0.0121873

*CONN
*I *705:ZN O *C 602.84 131.04 *L 0 *D IND3D1BWP7T
*I *694:A2 I *C 700.84 143.36 *L 0.00712 *D NR2XD1BWP7T

*CAP
1 *705:ZN 0.000200374
2 *140:2 0.00167323
3 *140:3 0.000144561
4 *140:4 0.000331889
5 *140:5 0.00125206
6 *140:6 1.79744e-05
7 *140:7 0.00014668
8 *140:8 0.00116504
9 *140:9 0.00144881
10 *140:10 0.00137361
11 *140:11 0.000833717
12 *140:12 3.77105e-05
13 *140:13 0.000219625
14 *140:14 8.76253e-05
15 *140:15 0.000207982
16 *140:16 0.000172238
17 *140:18 7.63913e-05
18 *140:2 *7:39 0.00040046
19 *140:2 *115:7 0.00041518
20 *140:7 *147:15 0.00147627
21 *140:7 *203:6 0.00050589

*RES
1 *694:A2 *140:17 6.98343
2 *140:5 *140:17 4.36423
3 *140:5 *140:4 8.58520317
4 *140:18 *140:4 0.905165
5 *140:16 *140:18 0.207806
6 *140:9 *140:16 7.45569
7 *140:9 *140:15 0.233745
8 *140:15 *140:11 2.86099
9 *140:8 *140:11 5.21826
10 *140:8 *140:14 0.233745
11 *140:14 *140:10 6.00357
12 *140:13 *140:10 1.47805
13 *140:7 *140:13 0.207806
14 *140:7 *140:2 9.76957989
15 *140:6 *140:2 0.608661
16 *140:3 *140:6 6.98343
17 *140:3 *140:12 7.19138
18 *705:ZN *140:12 0.759074
*END

*D_NET *141 0.00059645

*CONN
*I *704:ZN O *C 158.2 142.24 *L 0 *D INVD1BWP7T
*I *699:B I *C 157.9075 147.575 *L 0.00955 *D HA1D0BWP7T

*CAP
1 *699:B 1.71825e-05
2 *141:2 4.76129e-05
3 *141:3 0.00053166

*RES
1 *141:3 *141:2 8.23042774
2 *699:B *141:2 0.126465
3 *704:ZN *141:3 6.98348
*END

*D_NET *142 0.00880733

*CONN
*I *703:ZN O *C 157.08 138.88 *L 0 *D NR2D1BWP7T
*I *702:A1 I *C 218.12 135.52 *L 0.00831 *D ND3D2BWP7T
*I *696:B I *C 211.1325 139.735 *L 0.00955 *D HA1D0BWP7T

*CAP
1 *696:B 1.71834e-05
2 *142:3 0.000474938
3 *142:4 7.05449e-05
4 *142:5 0.000385365
5 *142:6 0.000636225
6 *142:7 0.000319729
7 *142:8 6.98847e-05
8 *142:9 0.000509559
9 *142:10 4.62343e-05
10 *142:11 9.31119e-06
11 *142:12 0.000219964
12 *142:13 0.000243276
13 *142:15 0.000735482
14 *142:16 0.00110947
15 *142:17 0.00107136
16 *142:18 0.000399907
17 *142:19 6.10644e-05
18 *142:20 4.99926e-05
19 *142:21 0.000129121
20 *142:22 2.37012e-06
21 *142:23 0.00011898
22 *142:3 *6:47 0.00066253
23 *142:7 *80:22 0.000415109984
24 *142:7 *82:32 0.00026609
25 *142:3 *161:4 0.00078363

*RES
1 *142:11 *142:9 8.98898
2 *142:23 *142:9 0.488416
3 *142:21 *142:23 0.610482
4 *142:21 *142:22 0.233664
5 *142:6 *142:22 3.29931
6 *142:6 *142:19 0.233664
7 *142:16 *142:19 4.15654
8 *142:4 *142:16 0.415608
9 *142:4 *142:3 2.64126
10 *142:18 *142:3 1.48926
11 *142:18 *142:20 0.233664
12 *142:17 *142:20 4.77995
13 *142:15 *142:17 0.207804
14 *142:15 *142:5 10.0878801
15 *142:5 *142:8 7.81481
16 *142:8 *703:ZN 0.253059
17 *142:12 *142:23 6.98344
18 *142:12 *142:10 7.39921
19 *696:B *142:10 0.126529
20 *142:7 *142:11 1.25991
21 *142:7 *142:14 0.181944
22 *142:13 *142:14 0.8443
23 *702:A1 *142:13 6.98344
*END

*D_NET *143 0.00824258

*CONN
*I *702:ZN O *C 218.68 134.96 *L 0 *D ND3D2BWP7T
*I *701:I I *C 282.52 135.52 *L 0.00498 *D INVD1BWP7T
*I *700:A1 I *C 289.24 132.16 *L 0.0121 *D NR2D3BWP7T

*CAP
1 *143:3 0.00184136
2 *143:4 0.00105326
3 *143:5 0.00113263
4 *143:6 0.000661749
5 *143:8 0.000679366
6 *143:10 0.000390722
7 *143:3 *38:178 0.00035234
8 *143:3 *82:34 0.00072074
9 *143:4 *101:16 0.00041888
10 *143:5 *124:14 0.00070714
11 *143:6 *194:3 0.00028441

*RES
1 *143:3 *143:9 0.415721
2 *702:ZN *143:9 6.98337
3 *143:3 *143:4 15.1865673
4 *143:5 *143:4 5.62382
5 *143:5 *143:6 5.62382
6 *143:7 *143:6 3.82538
7 *143:10 *143:7 6.98337
8 *143:10 *143:11 0.415721
9 *701:I *143:11 6.98337
10 *143:10 *143:8 7.81482
11 *143:8 *700:A1 2.78306
*END

*D_NET *144 0.0018883

*CONN
*I *701:ZN O *C 283.64 134.4 *L 0 *D INVD1BWP7T
*I *692:B I *C 283.9325 147.575 *L 0.00955 *D HA1D0BWP7T

*CAP
1 *701:ZN 6.35526e-05
2 *144:2 4.67706e-05
3 *144:3 0.000108705
4 *144:4 0.00085522
5 *144:5 0.000144227
6 *144:6 0.000321274
7 *144:7 0.000348535

*RES
1 *144:6 *144:2 7.61991358
2 *701:ZN *144:2 0.253005
3 *144:4 *144:6 0.389739
4 *144:4 *144:5 2.70166
5 *144:5 *144:7 0.415668
6 *144:7 *144:3 7.61991358
7 *144:3 *692:B 0.126502
*END

*D_NET *145 0.0111

*CONN
*I *700:ZN O *C 292.6 132.72 *L 0 *D NR2D3BWP7T
*I *698:A1 I *C 386.68 135.52 *L 0.0083 *D ND2D2BWP7T
*I *688:B I *C 384.7325 143.625 *L 0.00955 *D HA1D0BWP7T

*CAP
1 *145:3 0.00118507
2 *145:4 0.00130329
3 *145:5 6.42923e-05
4 *145:6 0.000925233
5 *145:7 0.0013521
6 *145:8 0.00137873
7 *145:9 0.00112341
8 *145:10 0.000145163
9 *145:11 0.000225065
10 *145:12 0.00119414
11 *145:14 0.000373405
12 *145:3 *177:3 0.00086608
13 *145:3 *194:4 0.00046047
14 *145:3 *197:11 0.00050354

*RES
1 *145:13 *145:14 0.207902
2 *145:14 *145:11 8.65904
3 *145:11 *145:12 0.818347
4 *145:12 *145:10 7.59404
5 *145:10 *698:A1 0.253031
6 *145:12 *145:5 9.90594
7 *145:5 *688:B 0.126429
8 *145:13 *145:8 6.0228
9 *145:4 *145:8 5.62387
10 *145:4 *145:7 5.62387
11 *145:3 *145:7 5.62387
12 *145:3 *145:6 5.62387
13 *145:9 *145:6 11.2883968
14 *700:ZN *145:9 6.98342
*END

*D_NET *146 0.0021567

*CONN
*I *699:CO O *C 156.52 148.4 *L 0 *D HA1D0BWP7T
*I *695:A1 I *C 163.8 140 *L 0.00651 *D CKXOR2D1BWP7T

*CAP
1 *146:2 0.000141137
2 *146:3 0.000483346
3 *146:4 0.000532279
4 *146:5 0.00099994

*RES
1 *146:2 *699:CO 0.505997
2 *146:3 *146:2 8.23036
3 *146:5 *146:3 10.1008358
4 *146:5 *146:4 8.43827
5 *695:A1 *146:4 6.98347
*END

*D_NET *147 0.0356059

*CONN
*I *698:ZN O *C 387.24 134.96 *L 0 *D ND2D2BWP7T
*I *697:I I *C 587.16 135.52 *L 0.00498 *D INVD1BWP7T
*I *694:A1 I *C 703.08 143.36 *L 0.0063 *D NR2XD1BWP7T

*CAP
1 *147:3 0.00142273
2 *147:4 0.00137767
3 *147:5 0.0012128
4 *147:6 0.00136956
5 *147:7 0.00149249
6 *147:8 0.00139184
7 *147:9 0.000106798
8 *147:10 0.00119738
9 *147:11 0.00189163
10 *147:12 0.000845439
11 *147:13 0.000516182
12 *147:14 0.00107168
13 *147:15 0.0010642
14 *147:16 0.0013086
15 *147:17 0.00126109
16 *147:18 0.00115403
17 *147:19 0.00118419
18 *147:20 0.00122013
19 *147:21 0.00147396
20 *147:22 0.00117501
21 *147:23 0.00116641
22 *147:24 0.000217291
23 *147:25 0.000132863
24 *147:26 0.000272192
25 *147:28 0.00050683
26 *147:29 0.00155299
27 *147:30 0.000192757
28 *147:3 *7:35 0.00169792
29 *147:15 *140:7 0.00147627
30 *147:18 *203:3 0.00021254
31 *147:18 *203:14 0.00026376
32 *147:18 *203:15 6.274e-05
33 *147:19 *203:4 0.00015748
34 *147:19 *203:3 2.907e-05
35 *147:19 *203:5 0.00013693
36 *147:19 *203:16 3.241e-05
37 *147:20 *203:8 8.838e-05
38 *147:20 *203:9 8.582e-05
39 *147:20 *203:17 6.438e-05
40 *147:20 *203:18 1.27e-06
41 *147:20 *203:19 2.898e-05
42 *147:20 *203:10 0.00023451
43 *147:15 *203:6 0.00027234
44 *147:15 *203:20 4.063e-05
45 *147:15 *203:13 0.00015029
46 *147:6 *203:21 6.414e-05
47 *147:6 *203:22 0.00017279
48 *147:6 *203:14 6.228e-05
49 *147:6 *203:15 0.00015179
50 *147:22 *203:4 7.876e-05
51 *147:22 *203:3 0.00024016
52 *147:22 *203:16 4.802e-05
53 *147:22 *203:14 0.00012346
54 *147:23 *203:4 6.956e-05
55 *147:23 *203:5 2.304e-05
56 *147:23 *203:9 0.00022256
57 *147:23 *203:17 9.228e-05
58 *147:23 *203:18 3.188e-05
59 *147:12 *203:11 3.661e-05
60 *147:12 *203:8 0.00025514
61 *147:12 *203:10 0.00010744
62 *147:10 *203:11 2.538e-05
63 *147:10 *203:6 0.00036385
64 *147:10 *203:12 5.474e-05
65 *147:10 *203:13 6.178e-05
66 *147:26 *203:11 3.09e-06
67 *147:29 *203:11 0.00014668
68 *147:29 *203:8 0.00016702
69 *147:29 *203:6 2.584e-05
70 *147:29 *203:23 9.361e-05
71 *147:29 *203:7 3.858e-05
72 *147:29 *203:12 3.0999907e-05

*RES
1 *147:28 *147:21 1.66593
2 *147:7 *147:21 5.62391
3 *147:7 *147:3 5.62391
4 *147:8 *147:3 5.62391
5 *147:8 *147:5 5.62391
6 *147:4 *147:5 5.62391
7 *147:4 *147:6 5.62391
8 *147:18 *147:6 5.62391
9 *147:18 *147:22 5.62391
10 *147:19 *147:22 5.62391
11 *147:19 *147:23 5.62391
12 *147:20 *147:23 5.62391
13 *147:20 *147:12 5.62391
14 *147:29 *147:12 4.19657
15 *147:29 *147:10 7.0511
16 *147:15 *147:10 5.62391
17 *147:15 *147:17 5.62391
18 *147:16 *147:17 5.62391
19 *147:16 *147:13 5.62391
20 *147:25 *147:13 2.23753
21 *147:11 *147:25 0.649312
22 *147:11 *147:9 8.98428
23 *147:14 *147:9 9.20868111
24 *147:14 *147:27 3.94871
25 *694:A1 *147:27 6.98351
26 *147:29 *147:26 7.39915
27 *697:I *147:26 6.98351
28 *147:28 *147:30 0.233674
29 *147:30 *147:24 7.59404
30 *698:ZN *147:24 6.98351
*END

*D_NET *148 0.00139923

*CONN
*I *697:ZN O *C 588.28 134.4 *L 0 *D INVD1BWP7T
*I *693:A1 I *C 586.6 140 *L 0.00313 *D INR2XD0BWP7T
*I *684:B I *C 582.9725 139.735 *L 0.00955 *D HA1D0BWP7T

*CAP
1 *693:A1 7.77835e-06
2 *684:B 1.72667e-05
3 *148:3 6.36108e-05
4 *148:4 0.000201339
5 *148:5 0.00022144
6 *148:6 0.00042934
7 *148:7 2.23902e-05
8 *148:8 0.00043606

*RES
1 *693:A1 *148:7 6.98346
2 *148:6 *148:7 0.636458
3 *148:6 *148:9 0.59759
4 *148:8 *148:9 0.636458
5 *697:ZN *148:8 6.98346
6 *148:4 *693:A1 0.758961
7 *148:4 *148:5 6.98346
8 *148:5 *148:3 7.5810461
9 *684:B *148:3 0.126551
*END

*D_NET *149 0.00054918

*CONN
*I *696:CO O *C 212.52 140.56 *L 0 *D HA1D0BWP7T
*I *691:A1 I *C 211.96 143.36 *L 0.00651 *D CKXOR2D1BWP7T

*CAP
1 *149:2 3.02912e-05
2 *149:3 3.00779e-06
3 *149:4 0.000170008
4 *149:5 4.83952e-06
5 *149:6 0.00034103

*RES
1 *149:3 *149:2 0.122117
2 *149:6 *149:2 0.0597799
3 *149:6 *149:5 0.844271
4 *691:A1 *149:5 6.98348808
5 *149:4 *149:3 0.220791
6 *696:CO *149:4 6.98348808
*END

*D_NET *150 0.00186248

*CONN
*I *693:ZN O *C 588.28 140.56 *L 0 *D INR2XD0BWP7T
*I *682:B I *C 601.4275 143.625 *L 0.00955 *D HA1D0BWP7T

*CAP
1 *150:2 8.17518e-05
2 *150:3 0.000165916
3 *150:5 0.000340098
4 *150:6 0.00127471

*RES
1 *693:ZN *150:3 6.98345
2 *150:3 *150:4 0.207856
3 *150:6 *150:4 11.763422
4 *150:5 *150:6 6.98345
5 *150:5 *150:2 7.8147
6 *150:2 *682:B 0.126544
*END

*D_NET *151 0.000639

*CONN
*I *692:CO O *C 285.32 148.4 *L 0 *D HA1D0BWP7T
*I *687:A1 I *C 289.8 147.84 *L 0.00651 *D CKXOR2D1BWP7T

*CAP
1 *692:CO 0.00037948
2 *151:2 4.809e-05
3 *151:3 0.000211428

*RES
1 *151:3 *151:2 7.37322283
2 *692:CO *151:2 1.51805
3 *687:A1 *151:3 6.9835
*END

*D_NET *152 0.00297471

*CONN
*I *690:ZN O *C 698.6 142.8 *L 0 *D ND2D1BWP7T
*I *689:I I *C 691.88 155.68 *L 0.00498 *D INVD1BWP7T
*I *686:A1 I *C 692.16 147.56 *L 0.0179 *D NR2XD3BWP7T

*CAP
1 *686:A1 1.75573e-05
2 *152:3 0.000537883
3 *152:4 0.000286273
4 *152:5 6.49051e-05
5 *152:6 0.000473345
6 *152:7 8.95553e-05
7 *152:8 0.00109374
8 *152:9 2.10286e-06
9 *152:10 0.000409358

*RES
1 *686:A1 *152:5 0.12648
2 *152:5 *152:10 6.98351
3 *152:8 *152:10 0.831288
4 *152:8 *152:4 8.70693588
5 *152:9 *152:4 7.54616
6 *152:6 *152:9 0.831288
7 *690:ZN *152:6 6.98351
8 *152:10 *152:3 1.37308
9 *152:7 *152:3 1.53636
10 *689:I *152:7 6.98351
*END

*D_NET *153 0.00457274

*CONN
*I *689:ZN O *C 693 156.8 *L 0 *D INVD1BWP7T
*I *685:A1 I *C 691.88 159.04 *L 0.00283 *D CKAN2D1BWP7T
*I *677:B I *C 725.1875 155.415 *L 0.00955 *D HA1D0BWP7T

*CAP
1 *685:A1 0.000113633
2 *153:3 0.000106346
3 *153:4 0.00251331
4 *153:5 3.43622e-05
5 *153:6 0.000184198
6 *153:7 0.000799573
7 *153:8 0.000370544
8 *153:9 0.000450812

*RES
1 *689:ZN *153:8 6.98354
2 *153:7 *153:8 0.623418
3 *153:7 *153:4 8.49913502
4 *153:9 *153:4 10.3302975
5 *153:6 *153:9 6.98354
6 *153:6 *153:3 7.1913
7 *153:3 *677:B 0.126575
8 *153:8 *153:5 8.02263
9 *685:A1 *153:5 0.505985
*END

*D_NET *154 0.00082489

*CONN
*I *688:CO O *C 386.12 142.8 *L 0 *D HA1D0BWP7T
*I *678:B I *C 389.7725 147.575 *L 0.00955 *D HA1D0BWP7T

*CAP
1 *688:CO 0.000121602
2 *154:2 3.92477e-05
3 *154:3 7.74308e-05
4 *154:4 0.000288429
5 *154:5 0.00029818

*RES
1 *154:3 *678:B 0.0399104
2 *154:5 *154:3 7.5160017
3 *154:4 *154:5 0.415619
4 *154:4 *154:2 7.38618
5 *688:CO *154:2 0.505991
*END

*D_NET *155 0.0468436

*CONN
*I *686:ZN O *C 685.72 148.4 *L 0 *D NR2XD3BWP7T
*I *683:A1 I *C 192.36 143.36 *L 0.00255 *D AN3D1BWP7T
*I *673:B I *C 192.0675 147.575 *L 0.00955 *D HA1D0BWP7T

*CAP
1 *673:B 1.72432e-05
2 *155:3 0.000781425
3 *155:4 0.000745023
4 *155:5 0.000998058
5 *155:6 0.000830903
6 *155:7 0.00135734
7 *155:9 0.00086381
8 *155:10 0.00109866
9 *155:11 0.000884212
10 *155:12 0.000945354
11 *155:13 0.000953286
12 *155:14 0.000800181
13 *155:15 0.000742233
14 *155:16 2.84362e-05
15 *155:17 0.000739544
16 *155:18 0.000664823
17 *155:19 0.000747813
18 *155:20 0.000900582
19 *155:21 0.000870734
20 *155:22 0.00108616
21 *155:23 0.00109043
22 *155:24 0.000983437
23 *155:25 0.000318614
24 *155:26 0.000257607
25 *155:27 0.000833592
26 *155:28 0.000892044
27 *155:29 0.000897523
28 *155:30 0.000651546
29 *155:31 0.000875675
30 *155:32 0.000830264
31 *155:33 0.000862667
32 *155:34 0.00128461
33 *155:35 0.000155122
34 *155:36 0.00195995
35 *155:37 4.82004e-05
36 *155:38 0.0022028
37 *155:39 0.00196654
38 *155:40 0.000579145
39 *155:41 0.000290077
40 *155:42 0.00117231
41 *155:43 0.000469904
42 *155:3 *71:12 0.00144685
43 *155:7 *102:8 0.00067918
44 *155:17 *177:4 0.00032663
45 *155:18 *197:11 0.00130464
46 *155:4 *118:8 0.00113483
47 *155:16 *173:18 4.76e-06
48 *155:17 *173:3 0.00012202
49 *155:17 *173:4 0.00018975
50 *155:18 *173:19 0.00017688
51 *155:18 *173:3 5.272e-05
52 *155:18 *173:9 5.417e-05
53 *155:19 *173:5 0.00010463
54 *155:19 *173:9 8.987e-05
55 *155:19 *173:6 7.856e-05
56 *155:20 *173:20 0.00016258
57 *155:20 *173:6 9.44e-06
58 *155:20 *173:21 4.623e-05
59 *155:21 *173:22 9.742e-05
60 *155:21 *173:21 5.469e-05
61 *155:21 *173:23 7.044e-05
62 *155:22 *173:24 9.499e-05
63 *155:22 *173:23 3.861e-05
64 *155:22 *173:10 5.728e-05
65 *155:23 *173:7 0.0001364
66 *155:23 *173:10 1.889e-05
67 *155:23 *173:8 3.955e-05
68 *155:6 *173:12 0.00014407
69 *155:6 *173:8 4.892e-05
70 *155:6 *173:25 4.331e-05
71 *155:4 *173:11 9.712e-05
72 *155:4 *173:25 5.332e-05
73 *155:4 *173:26 6.211e-05
74 *155:13 *173:27 0.00012796
75 *155:13 *173:26 1.807e-05
76 *155:13 *173:28 7.706e-05
77 *155:10 *173:29 0.00012695
78 *155:10 *173:28 4.664e-05
79 *155:10 *173:30 5.798e-05
80 *155:12 *173:31 0.00014584
81 *155:12 *173:30 4.436e-05
82 *155:12 *173:32 5.041e-05
83 *155:24 *173:33 0.00017606
84 *155:24 *173:32 4.296e-05
85 *155:24 *173:34 4.219e-05
86 *155:8 *173:18 4.21e-06
87 *155:27 *173:35 6.7e-05
88 *155:27 *173:36 4.15e-05
89 *155:27 *173:4 0.00011981
90 *155:27 *173:37 1.169e-05
91 *155:28 *173:19 5.469e-05
92 *155:28 *173:3 0.0001393
93 *155:28 *173:4 8.642e-05
94 *155:29 *173:19 5.698e-05
95 *155:29 *173:5 5.942e-05
96 *155:29 *173:9 0.00010856
97 *155:30 *173:5 6.022e-05
98 *155:30 *173:20 7.768e-05
99 *155:30 *173:6 0.00017147
100 *155:31 *173:20 2.698e-05
101 *155:31 *173:22 8.037e-05
102 *155:31 *173:21 0.00011285
103 *155:32 *173:22 7.46e-05
104 *155:32 *173:24 6.384e-05
105 *155:32 *173:23 0.00013657
106 *155:33 *173:24 6.643e-05
107 *155:33 *173:7 3.131e-05
108 *155:33 *173:10 0.00019164
109 *155:5 *173:7 4.667e-05
110 *155:5 *173:12 5.718e-05
111 *155:5 *173:8 0.00010141
112 *155:3 *173:12 2.721e-05
113 *155:3 *173:11 5.07e-05
114 *155:3 *173:25 0.00013583
115 *155:14 *173:11 7.783e-05
116 *155:14 *173:27 5.405e-05
117 *155:14 *173:26 0.00012335
118 *155:15 *173:27 2.278e-05
119 *155:15 *173:29 6.174e-05
120 *155:15 *173:28 0.00013479
121 *155:11 *173:29 2.54e-05
122 *155:11 *173:31 6.05e-05
123 *155:11 *173:30 0.00012898
124 *155:9 *173:31 2.859e-05
125 *155:9 *173:33 5.214e-05
126 *155:9 *173:32 0.00014196
127 *155:34 *173:33 2.7e-05
128 *155:34 *173:16 7.93e-05
129 *155:34 *173:34 0.00013047
130 *155:36 *173:35 9.05e-05
131 *155:36 *173:18 0.00010219
132 *155:36 *173:36 1.834e-05
133 *155:41 *173:16 1.3e-05
134 *155:41 *173:34 2.93600264e-05
135 *155:9 *115:5 0.00050362

*RES
1 *155:41 *155:34 6.199
2 *155:24 *155:34 5.62389
3 *155:24 *155:9 5.62389
4 *155:12 *155:9 5.62389
5 *155:12 *155:11 5.62389
6 *155:10 *155:11 5.62389
7 *155:10 *155:15 5.62389
8 *155:13 *155:15 5.62389
9 *155:13 *155:14 5.62389
10 *155:4 *155:14 5.62389
11 *155:4 *155:3 5.62389
12 *155:6 *155:3 5.62389
13 *155:6 *155:5 5.62389
14 *155:23 *155:5 5.62389
15 *155:23 *155:33 5.62389
16 *155:22 *155:33 5.62389
17 *155:22 *155:32 5.62389
18 *155:21 *155:32 5.62389
19 *155:21 *155:31 5.62389
20 *155:20 *155:31 5.62389
21 *155:20 *155:30 5.62389
22 *155:19 *155:30 5.62389
23 *155:19 *155:29 5.62389
24 *155:18 *155:29 5.62389
25 *155:18 *155:28 5.62389
26 *155:17 *155:28 5.62389
27 *155:17 *155:27 5.62389
28 *155:36 *155:27 10.3195
29 *155:16 *155:36 0.20773
30 *155:16 *155:8 0.928251
31 *155:7 *155:8 9.64499
32 *155:7 *155:35 0.233638
33 *155:35 *155:26 1.57688
34 *155:42 *155:26 5.67104
35 *155:42 *155:43 0.233638
36 *155:43 *155:39 8.63318
37 *155:39 *155:40 6.23471
38 *683:A1 *155:40 6.98347
39 *155:40 *155:37 8.64601
40 *673:B *155:37 0.126505
41 *155:38 *155:41 6.98347
42 *155:38 *155:25 15.2964163
43 *155:25 *686:ZN 1.01204
*END

*D_NET *156 0.00181805

*CONN
*I *685:Z O *C 689.64 158.48 *L 0 *D CKAN2D1BWP7T
*I *674:B I *C 688.2275 171.095 *L 0.00955 *D HA1D0BWP7T

*CAP
1 *156:2 0.000108049
2 *156:3 0.000166254
3 *156:4 0.00133327
4 *156:5 0.000210483

*RES
1 *156:2 *674:B 0.126445
2 *156:4 *156:2 10.529438
3 *156:4 *156:5 0.181874
4 *156:5 *156:3 7.41203
5 *156:3 *685:Z 0.505939
*END

*D_NET *157 0.0013323

*CONN
*I *684:CO O *C 584.36 140.56 *L 0 *D HA1D0BWP7T
*I *680:A1 I *C 581.56 132.16 *L 0.00651 *D CKXOR2D1BWP7T

*CAP
1 *157:2 1.07927e-05
2 *157:3 0.000171417
3 *157:4 0.000351775
4 *157:5 0.00079831

*RES
1 *157:4 *157:3 1.03917
2 *157:3 *157:2 0.220791
3 *684:CO *157:2 6.98348808
4 *157:5 *157:4 2.27313
5 *680:A1 *157:5 6.98348808
*END

*D_NET *158 0.00262941

*CONN
*I *683:Z O *C 189.56 142.24 *L 0 *D AN3D1BWP7T
*I *679:A1 I *C 180.6 140 *L 0.00445 *D AN3D2BWP7T
*I *671:B I *C 179.7475 147.575 *L 0.00955 *D HA1D0BWP7T

*CAP
1 *158:3 0.000174093
2 *158:4 0.000310104
3 *158:5 0.000595313
4 *158:6 0.000173054
5 *158:7 0.00014106
6 *158:8 0.00095916
7 *158:9 0.000276632

*RES
1 *158:4 *158:7 6.98349
2 *158:7 *158:5 9.01421738
3 *158:9 *158:5 0.878782
4 *158:8 *158:9 6.98349
5 *158:8 *158:6 8.64601
6 *158:6 *671:B 0.126542
7 *158:8 *158:3 8.02265
8 *158:3 *679:A1 0.506032
9 *158:4 *683:Z 1.01206
*END

*D_NET *159 0.00290224

*CONN
*I *682:CO O *C 600.04 142.8 *L 0 *D HA1D0BWP7T
*I *676:A1 I *C 611.24 135.52 *L 0.00651 *D CKXOR2D1BWP7T

*CAP
1 *159:2 9.51885e-05
2 *159:3 0.000712351
3 *159:4 0.000173525
4 *159:5 0.00097563
5 *159:6 0.000945543

*RES
1 *676:A1 *159:4 6.98355
2 *159:4 *159:3 8.86868
3 *159:6 *159:3 2.47908
4 *159:5 *159:6 6.98355
5 *159:5 *159:2 9.6851902
6 *159:2 *682:CO 0.253007
*END

*D_NET *160 0.00230556

*CONN
*I *681:CO O *C 705.32 148.4 *L 0 *D HA1D0BWP7T
*I *670:B I *C 717.3725 151.465 *L 0.00955 *D HA1D0BWP7T

*CAP
1 *160:2 6.56729e-05
2 *160:3 0.000475944
3 *160:5 0.000339773
4 *160:6 0.00142418

*RES
1 *160:5 *160:6 6.98345
2 *160:6 *160:4 11.3477755
3 *160:3 *160:4 0.623525
4 *681:CO *160:3 6.98345
5 *160:5 *160:2 7.39919
6 *160:2 *670:B 0.126575
*END

*D_NET *161 0.00932819

*CONN
*I *679:Z O *C 183.96 140.56 *L 0 *D AN3D2BWP7T
*I *675:A1 I *C 250.04 135.52 *L 0.00448 *D AN3XD1BWP7T
*I *666:B I *C 252.0125 139.735 *L 0.00955 *D HA1D0BWP7T

*CAP
1 *679:Z 0.000540852
2 *161:3 0.000480338
3 *161:4 0.000222513
4 *161:5 0.0023165
5 *161:6 0.00116
6 *161:7 5.01935e-05
7 *161:8 0.000105088
8 *161:9 0.000776126
9 *161:10 0.000552234
10 *161:11 0.000106997
11 *161:12 0.000148354
12 *161:13 0.000186741
13 *161:14 0.000785917
14 *161:15 6.87156e-05
15 *161:16 0.000367225
16 *161:17 3.35801e-06
17 *161:18 0.000363479
18 *161:3 *102:4 0.00030993
19 *161:4 *142:3 0.00078363

*RES
1 *161:11 *161:3 6.98354
2 *161:18 *161:3 8.43818569
3 *161:18 *161:13 7.8148
4 *675:A1 *161:13 6.98354
5 *161:16 *161:3 7.59406
6 *161:16 *161:17 0.44162
7 *161:17 *161:9 3.00647
8 *161:10 *161:9 2.18916
9 *161:8 *161:10 0.207886
10 *161:8 *161:5 9.05852699
11 *161:6 *161:5 4.83971
12 *161:6 *161:15 0.233734
13 *161:14 *161:15 3.11732
14 *161:4 *161:14 0.207886
15 *161:4 *161:12 7.59406
16 *161:7 *161:12 6.98354
17 *679:Z *161:7 2.27707
18 *161:11 *666:B 0.126473
*END

*D_NET *162 0.00158782

*CONN
*I *678:CO O *C 391.16 148.4 *L 0 *D HA1D0BWP7T
*I *667:B I *C 404.3075 147.575 *L 0.00955 *D HA1D0BWP7T

*CAP
1 *678:CO 0.000325105
2 *667:B 1.72453e-05
3 *162:2 5.51259e-05
4 *162:3 0.00088157
5 *162:4 6.23092e-05
6 *162:5 0.000246466

*RES
1 *162:4 *162:5 6.98346
2 *162:5 *162:2 7.5810461
3 *162:2 *162:3 3.77514
4 *678:CO *162:3 1.28495
5 *667:B *162:4 0.126551
*END

*D_NET *163 0.00313284

*CONN
*I *677:CO O *C 723.8 156.24 *L 0 *D HA1D0BWP7T
*I *672:A1 I *C 737.8 151.2 *L 0.00651 *D CKXOR2D1BWP7T

*CAP
1 *163:2 3.42928e-05
2 *163:3 0.000200081
3 *163:4 0.00110382
4 *163:5 0.000113035
5 *163:6 0.000360175
6 *163:7 0.000541105
7 *163:8 0.000444223
8 *163:9 6.77771e-05
9 *163:10 8.40476e-06
10 *163:11 0.000259924

*RES
1 *672:A1 *163:5 6.98354
2 *163:5 *163:3 0.12621
3 *163:10 *163:3 0.510227
4 *163:7 *163:10 0.181909
5 *163:7 *163:9 1.66264
6 *163:9 *163:11 0.207861
7 *163:11 *163:2 7.61986
8 *163:2 *163:4 4.70221
9 *163:6 *163:4 1.62286
10 *163:8 *163:6 8.02260399
11 *677:CO *163:8 6.98354
*END

*D_NET *164 0.00765871

*CONN
*I *675:Z O *C 253.4 134.96 *L 0 *D AN3XD1BWP7T
*I *664:B I *C 311.08 138.88 *L 0.0115 *D HA1D1BWP7T

*CAP
1 *164:2 0.000638106
2 *164:3 0.00254865
3 *164:4 0.00059836
4 *164:5 0.000570282
5 *164:6 3.81121e-05
6 *164:7 0.000258773
7 *164:9 0.000132653
8 *164:11 7.64964e-05
9 *164:12 0.000368676
10 *164:13 0.00035837
11 *164:14 1.36115e-05
12 *164:15 0.00106457
13 *164:16 0.000744042
14 *164:17 4.53067e-05
15 *164:18 5.23847e-05
16 *164:19 0.000150348

*RES
1 *675:Z *164:5 6.98349
2 *164:5 *164:8 1.24691
3 *164:13 *164:8 7.59393167
4 *164:13 *164:15 0.415682
5 *164:15 *164:17 3.9487
6 *164:16 *164:17 0.441557
7 *164:16 *164:18 1.84455
8 *164:18 *164:19 0.207841
9 *164:19 *164:3 0.759646
10 *164:6 *164:3 9.21587944
11 *164:2 *164:6 0.233716
12 *164:2 *164:9 1.84455
13 *164:9 *164:11 0.415682
14 *164:11 *164:4 0.161435
15 *164:14 *164:4 2.33252
16 *164:12 *164:14 0.441557
17 *164:12 *164:10 7.59393167
18 *164:7 *164:10 0.207841
19 *664:B *164:7 6.98349
*END

*D_NET *165 0.00216647

*CONN
*I *674:CO O *C 686.84 171.92 *L 0 *D HA1D0BWP7T
*I *669:A1 I *C 666.12 171.36 *L 0.00651 *D CKXOR2D1BWP7T

*CAP
1 *165:2 0.00203299
2 *165:3 2.53755e-05
3 *165:4 0.00010811

*RES
1 *165:4 *165:3 0.230511
2 *165:3 *165:2 7.14272881
3 *165:2 *674:CO 8.85507584
4 *669:A1 *165:4 6.98343
*END

*D_NET *166 0.00111335

*CONN
*I *673:CO O *C 190.68 148.4 *L 0 *D HA1D0BWP7T
*I *668:A1 I *C 190.12 140 *L 0.00651 *D CKXOR2D1BWP7T

*CAP
1 *166:2 1.0693e-05
2 *166:3 0.000105537
3 *166:4 0.000111201
4 *166:5 0.00088592

*RES
1 *673:CO *166:2 6.98348808
2 *166:3 *166:2 0.0100166
3 *166:4 *166:3 0.207791
4 *166:5 *166:4 2.40665
5 *668:A1 *166:5 6.98348808
*END

*D_NET *167 0.00183815

*CONN
*I *671:CO O *C 178.36 148.4 *L 0 *D HA1D0BWP7T
*I *665:A1 I *C 177.24 135.52 *L 0.00651 *D CKXOR2D1BWP7T

*CAP
1 *167:2 1.57891e-05
2 *167:3 0.000234331
3 *167:4 2.93545e-05
4 *167:5 0.00063637
5 *167:6 0.000141665
6 *167:7 0.000246459
7 *167:8 7.86444e-05
8 *167:9 0.000455553

*RES
1 *671:CO *167:2 6.98348808
2 *167:3 *167:2 0.428583
3 *167:6 *167:3 0.415689
4 *167:7 *167:6 0.62348
5 *167:7 *167:4 0.181897
6 *167:5 *167:4 1.89633
7 *167:8 *167:5 0.207791
8 *167:9 *167:8 1.23396
9 *665:A1 *167:9 6.98348808
*END

*D_NET *168 0.00059964

*CONN
*I *670:CO O *C 718.76 150.64 *L 0 *D HA1D0BWP7T
*I *661:B I *C 719.6125 147.575 *L 0.00955 *D HA1D0BWP7T

*CAP
1 *661:B 1.72497e-05
2 *168:2 4.76312e-05
3 *168:3 0.000258691
4 *168:4 1.82038e-06
5 *168:5 0.00027425

*RES
1 *670:CO *168:4 6.98345
2 *168:3 *168:4 0.428574
3 *168:3 *168:5 0.181964
4 *168:5 *168:2 7.61991358
5 *661:B *168:2 0.126502
*END

*D_NET *169 0.00228602

*CONN
*I *667:CO O *C 402.92 148.4 *L 0 *D HA1D0BWP7T
*I *663:A1 I *C 410.76 135.52 *L 0.00651 *D CKXOR2D1BWP7T

*CAP
1 *169:2 0.000797356
2 *169:3 3.31982e-05
3 *169:4 0.000395727
4 *169:5 0.00105974

*RES
1 *663:A1 *169:5 6.98347
2 *169:5 *169:3 10.1008358
3 *169:2 *169:3 3.54198
4 *169:4 *169:2 8.02259
5 *667:CO *169:4 6.98347
*END

*D_NET *170 0.00062609

*CONN
*I *666:CO O *C 253.4 140.56 *L 0 *D HA1D0BWP7T
*I *662:A1 I *C 251.16 143.36 *L 0.00651 *D CKXOR2D1BWP7T

*CAP
1 *170:3 0.000145888
2 *170:5 0.0004802

*RES
1 *662:A1 *170:4 6.98348808
2 *170:5 *170:4 0.844271
3 *170:5 *170:2 0.805377
4 *170:3 *170:2 0.220791
5 *666:CO *170:3 6.98348808
*END

*D_NET *171 0.00492968

*CONN
*I *664:CO O *C 313.32 141.12 *L 0 *D HA1D1BWP7T
*I *660:A1 I *C 351.96 136.08 *L 0.00584 *D XOR2D1BWP7T

*CAP
1 *664:CO 0.00220598
2 *171:2 0.00103733
3 *171:3 0.00106352
4 *171:5 6.83657e-05
5 *171:6 0.00044473
6 *171:7 0.000109735

*RES
1 *171:2 *171:4 0.278902
2 *171:4 *171:3 4.32961
3 *664:CO *171:3 9.06651306
4 *171:2 *171:5 3.78205
5 *171:7 *171:5 7.17839384
6 *171:6 *171:7 1.05211
7 *660:A1 *171:6 6.98347
*END

*D_NET *172 0.00276865

*CONN
*I *661:CO O *C 721 148.4 *L 0 *D HA1D0BWP7T
*I *659:A1 I *C 725.48 135.52 *L 0.00651 *D CKXOR2D1BWP7T

*CAP
1 *172:2 0.00089352
2 *172:3 0.00013352
3 *172:4 0.000392175
4 *172:5 3.80395e-06
5 *172:6 0.000327154
6 *172:7 1.87062e-05
7 *172:8 0.000235041
8 *172:9 0.000764731

*RES
1 *659:A1 *172:8 6.98351
2 *172:8 *172:9 6.98351
3 *172:9 *172:4 8.64607334
4 *172:4 *172:5 0.844211
5 *172:2 *172:5 0.389717
6 *172:2 *172:3 2.70177
7 *172:3 *172:6 0.415707
8 *172:6 *172:7 0.636424
9 *661:CO *172:7 6.98351
*END

*D_NET *173 0.0450364

*CONN
*I *750:ZN O *C 753.48 134.4 *L 0 *D NR2XD2BWP7T
*I *746:A1 I *C 277.48 132.16 *L 0.00435 *D ND2D1BWP7T
*I *737:B I *C 239.6925 135.785 *L 0.00955 *D HA1D0BWP7T

*CAP
1 *173:3 0.000581971
2 *173:4 0.00146048
3 *173:5 0.000722332
4 *173:6 0.000576159
5 *173:7 0.000994336
6 *173:8 0.000992058
7 *173:9 0.000965693
8 *173:10 0.000753724
9 *173:11 0.000975851
10 *173:12 0.00107948
11 *173:13 0.00104704
12 *173:14 0.000984753
13 *173:15 0.00171583
14 *173:16 0.00109749
15 *173:17 0.00135219
16 *173:18 0.000891808
17 *173:19 0.000738094
18 *173:20 0.000992817
19 *173:21 0.000977082
20 *173:22 0.00094548
21 *173:23 0.000971453
22 *173:24 0.00104036
23 *173:25 0.00107385
24 *173:26 0.00110281
25 *173:27 0.00105945
26 *173:28 0.000905213
27 *173:29 0.00109841
28 *173:30 0.000908512
29 *173:31 0.00104963
30 *173:32 0.00101018
31 *173:33 0.000938228
32 *173:34 0.00105275
33 *173:35 0.000971112
34 *173:36 0.00014421
35 *173:37 9.75537e-05
36 *173:38 8.17922e-05
37 *173:39 0.000480857
38 *173:40 0.000779382
39 *173:42 0.000366389
40 *173:43 2.56583e-06
41 *173:44 0.000226316
42 *173:46 0.000272763
43 *173:35 *177:4 0.00027876
44 *173:13 *66:11 0.00066763
45 *173:3 *55:29 0.00140036
46 *173:18 *155:16 4.76e-06
47 *173:3 *155:17 0.00012202
48 *173:4 *155:17 0.00018975
49 *173:19 *155:18 0.00017688
50 *173:3 *155:18 5.272e-05
51 *173:9 *155:18 5.417e-05
52 *173:5 *155:19 0.00010463
53 *173:9 *155:19 8.987e-05
54 *173:6 *155:19 7.856e-05
55 *173:20 *155:20 0.00016258
56 *173:6 *155:20 9.44e-06
57 *173:21 *155:20 4.623e-05
58 *173:22 *155:21 9.742e-05
59 *173:21 *155:21 5.469e-05
60 *173:23 *155:21 7.044e-05
61 *173:24 *155:22 9.499e-05
62 *173:23 *155:22 3.861e-05
63 *173:10 *155:22 5.728e-05
64 *173:7 *155:23 0.0001364
65 *173:10 *155:23 1.889e-05
66 *173:8 *155:23 3.955e-05
67 *173:12 *155:6 0.00014407
68 *173:8 *155:6 4.892e-05
69 *173:25 *155:6 4.331e-05
70 *173:11 *155:4 9.712e-05
71 *173:25 *155:4 5.332e-05
72 *173:26 *155:4 6.211e-05
73 *173:27 *155:13 0.00012796
74 *173:26 *155:13 1.807e-05
75 *173:28 *155:13 7.706e-05
76 *173:29 *155:10 0.00012695
77 *173:28 *155:10 4.664e-05
78 *173:30 *155:10 5.798e-05
79 *173:31 *155:12 0.00014584
80 *173:30 *155:12 4.436e-05
81 *173:32 *155:12 5.041e-05
82 *173:33 *155:24 0.00017606
83 *173:32 *155:24 4.296e-05
84 *173:34 *155:24 4.219e-05
85 *173:18 *155:8 4.21e-06
86 *173:35 *155:27 6.7e-05
87 *173:36 *155:27 4.15e-05
88 *173:4 *155:27 0.00011981
89 *173:37 *155:27 1.169e-05
90 *173:19 *155:28 5.469e-05
91 *173:3 *155:28 0.0001393
92 *173:4 *155:28 8.642e-05
93 *173:19 *155:29 5.698e-05
94 *173:5 *155:29 5.942e-05
95 *173:9 *155:29 0.00010856
96 *173:5 *155:30 6.022e-05
97 *173:20 *155:30 7.768e-05
98 *173:6 *155:30 0.00017147
99 *173:20 *155:31 2.698e-05
100 *173:22 *155:31 8.037e-05
101 *173:21 *155:31 0.00011285
102 *173:22 *155:32 7.46e-05
103 *173:24 *155:32 6.384e-05
104 *173:23 *155:32 0.00013657
105 *173:24 *155:33 6.643e-05
106 *173:7 *155:33 3.131e-05
107 *173:10 *155:33 0.00019164
108 *173:7 *155:5 4.667e-05
109 *173:12 *155:5 5.718e-05
110 *173:8 *155:5 0.00010141
111 *173:12 *155:3 2.721e-05
112 *173:11 *155:3 5.07e-05
113 *173:25 *155:3 0.00013583
114 *173:11 *155:14 7.783e-05
115 *173:27 *155:14 5.405e-05
116 *173:26 *155:14 0.00012335
117 *173:27 *155:15 2.278e-05
118 *173:29 *155:15 6.174e-05
119 *173:28 *155:15 0.00013479
120 *173:29 *155:11 2.54e-05
121 *173:31 *155:11 6.05e-05
122 *173:30 *155:11 0.00012898
123 *173:31 *155:9 2.859e-05
124 *173:33 *155:9 5.214e-05
125 *173:32 *155:9 0.00014196
126 *173:33 *155:34 2.7e-05
127 *173:16 *155:34 7.93e-05
128 *173:34 *155:34 0.00013047
129 *173:35 *155:36 9.05e-05
130 *173:18 *155:36 0.00010219
131 *173:36 *155:36 1.834e-05
132 *173:16 *155:41 1.3e-05
133 *173:34 *155:41 2.93599435e-05
134 *173:35 *179:2 0.00044121

*RES
1 *173:46 *173:41 8.02256
2 *173:17 *173:41 4.15637
3 *173:17 *173:15 15.6259642
4 *173:13 *173:15 5.62393
5 *173:13 *173:14 5.62393
6 *173:16 *173:14 5.62393
7 *173:16 *173:34 5.62393
8 *173:33 *173:34 5.62393
9 *173:33 *173:32 5.62393
10 *173:31 *173:32 5.62393
11 *173:31 *173:30 5.62393
12 *173:29 *173:30 5.62393
13 *173:29 *173:28 5.62393
14 *173:27 *173:28 5.62393
15 *173:27 *173:26 5.62393
16 *173:11 *173:26 5.62393
17 *173:11 *173:25 5.62393
18 *173:12 *173:25 5.62393
19 *173:12 *173:8 5.62393
20 *173:7 *173:8 5.62393
21 *173:7 *173:10 5.62393
22 *173:24 *173:10 5.62393
23 *173:24 *173:23 5.62393
24 *173:22 *173:23 5.62393
25 *173:22 *173:21 5.62393
26 *173:20 *173:21 5.62393
27 *173:20 *173:6 5.62393
28 *173:5 *173:6 5.62393
29 *173:5 *173:9 5.62393
30 *173:19 *173:9 5.62393
31 *173:19 *173:3 5.62393
32 *173:4 *173:3 9.90309
33 *173:4 *173:39 7.19139
34 *173:37 *173:39 8.85398
35 *173:37 *173:36 1.33165
36 *173:35 *173:36 5.62393
37 *173:35 *173:18 5.62393
38 *173:44 *173:18 0.929175
39 *173:40 *173:44 6.98347
40 *173:40 *173:38 9.26957
41 *173:38 *737:B 0.126608
42 *173:37 *173:42 7.39906
43 *173:42 *173:45 1.03909
44 *746:A1 *173:45 6.98347
45 *173:43 *173:46 6.98347
46 *750:ZN *173:43 6.98347
*END

*D_NET *174 0.00402909

*CONN
*I *769:ZN O *C 444.36 140.56 *L 0 *D ND2D1BWP7T
*I *762:B I *C 449.12 140.28 *L 0.00283 *D OA21D0BWP7T
*I *759:I I *C 465.08 140 *L 0.00498 *D INVD1BWP7T
*I *758:A1 I *C 471.93 139.7475 *L 0.0083 *D NR2D2BWP7T

*CAP
1 *174:4 0.000781674
2 *174:5 8.86634e-05
3 *174:6 0.000218144
4 *174:7 0.000223165
5 *174:8 0.000138952
6 *174:9 0.000170759
7 *174:10 9.68865e-06
8 *174:11 0.000186378
9 *174:12 0.00088928
10 *174:13 4.57294e-06
11 *174:14 5.37761e-05
12 *174:15 0.000803317
13 *174:16 0.000460727

*RES
1 *758:A1 *174:8 6.98356
2 *174:8 *174:10 0.0100424
3 *174:15 *174:10 9.26954365
4 *174:6 *174:15 6.98356
5 *759:I *174:6 6.98356
6 *174:11 *174:15 0.610464
7 *174:11 *174:13 0.233804
8 *174:13 *174:4 3.45331
9 *174:16 *174:4 1.5345
10 *174:14 *174:16 0.207778
11 *174:12 *174:14 0.610464
12 *174:9 *174:12 6.98356
13 *174:5 *174:9 6.98356
14 *174:5 *762:B 0.126449
15 *174:12 *174:7 8.64607
16 *769:ZN *174:7 6.98356
*END

*D_NET *175 0.00862296

*CONN
*I *768:ZN O *C 812.28 140.56 *L 0 *D ND2D1BWP7T
*I *760:A1 I *C 750.68 140 *L 0.00313 *D IND3D1BWP7T
*I *749:B1 I *C 754.6 143.36 *L 0.00338 *D INR2XD0BWP7T

*CAP
1 *175:3 0.000812738
2 *175:4 0.000459113
3 *175:5 0.00145142
4 *175:6 0.000445093
5 *175:7 0.000484227
6 *175:8 0.000101412
7 *175:9 0.000408152
8 *175:10 0.000126549
9 *175:11 0.000497228
10 *175:4 *109:4 0.00198417
11 *175:3 *111:4 0.00185284

*RES
1 *175:8 *175:5 15.9911394
2 *175:3 *175:5 5.62384
3 *175:3 *175:4 5.62384
4 *175:11 *175:4 9.58868
5 *175:10 *175:11 0.207893
6 *175:6 *175:10 6.98344
7 *175:6 *749:B1 1.77099
8 *175:9 *175:10 1.45476
9 *760:A1 *175:9 6.98344
10 *175:7 *175:8 1.45476
11 *768:ZN *175:7 6.98344
*END

*D_NET *176 0.00087154

*CONN
*I *767:ZN O *C 658.28 142.8 *L 0 *D ND2D1BWP7T
*I *755:A2 I *C 662.2 143.36 *L 0.00712 *D NR2XD1BWP7T

*CAP
1 *176:2 0.00037428
2 *176:3 0.00011966
3 *176:4 0.000229611
4 *176:5 9.81175e-06
5 *176:6 0.000138181

*RES
1 *176:3 *755:A2 0.265917
2 *176:2 *176:3 1.25208
3 *176:6 *176:2 7.20426702
4 *176:4 *176:6 0.389696
5 *176:4 *176:5 0.220736
6 *767:ZN *176:5 6.98353
*END

*D_NET *177 0.00699608

*CONN
*I *766:Z O *C 265.72 132.72 *L 0 *D CKAN2D1BWP7T
*I *761:A1 I *C 330.12 132.16 *L 0.00248 *D ND3D0BWP7T
*I *741:A2 I *C 302.68 132.16 *L 0.00317 *D CKAN2D1BWP7T

*CAP
1 *177:3 0.00197318
2 *177:4 0.00150978
3 *177:5 5.33829e-05
4 *177:6 0.000664531
5 *177:7 0.00019095
6 *177:8 3.49262e-06
7 *177:3 *123:11 0.00040002
8 *177:4 *124:16 0.00034783
9 *177:3 *145:3 0.00086608
10 *177:4 *155:17 0.00032663
11 *177:4 *173:35 0.00027876
12 *177:4 *179:2 0.00038142

*RES
1 *766:Z *177:6 6.98357
2 *177:6 *177:4 9.60062
3 *177:5 *177:4 11.0992
4 *177:5 *177:3 0.148537
5 *177:7 *177:3 17.0183792
6 *177:7 *177:9 0.415747
7 *761:A1 *177:9 6.98357
8 *177:5 *177:8 7.39906
9 *741:A2 *177:8 6.98357
*END

*D_NET *178 0.00098844

*CONN
*I *765:ZN O *C 476.28 134.96 *L 0 *D ND2D1BWP7T
*I *758:A2 I *C 473.48 140 *L 0.00902 *D NR2D2BWP7T

*CAP
1 *758:A2 8.12842e-05
2 *178:2 0.000263064
3 *178:4 3.32128e-05
4 *178:5 0.00061089

*RES
1 *178:2 *178:3 0.152449
2 *758:A2 *178:3 0.240004
3 *178:2 *178:4 0.999029
4 *178:5 *178:4 8.43825054
5 *765:ZN *178:5 6.98355
*END

*D_NET *179 0.00626439

*CONN
*I *764:Z O *C 219.8 133.28 *L 0 *D AN4D0BWP7T
*I *746:A2 I *C 275.8 132.16 *L 0.00474 *D ND2D1BWP7T

*CAP
1 *764:Z 0.00134112
2 *179:2 0.00182307
3 *179:3 0.00015581
4 *179:4 0.00108998
5 *179:5 0.000301355
6 *179:6 0.000348396
7 *179:7 5.93364e-05
8 *179:8 4.33965e-05
9 *179:2 *101:28 0.0002793
10 *179:2 *173:35 0.00044121
11 *179:2 *177:4 0.00038142

*RES
1 *179:3 *179:2 10.0853
2 *179:4 *179:2 10.6144562
3 *179:7 *179:4 6.98355
4 *764:Z *179:7 5.81903
5 *179:8 *179:3 6.98355
6 *179:8 *179:6 7.19135
7 *179:6 *179:5 1.41508
8 *746:A2 *179:5 1.36795
*END

*D_NET *180 0.0003906

*CONN
*I *763:Z O *C 770.28 141.12 *L 0 *D AN4D0BWP7T
*I *753:A2 I *C 766.92 140 *L 0.00474 *D ND2D1BWP7T

*CAP
1 *753:A2 0.0003906

*RES
1 *753:A2 *763:Z 1.51801
*END

*D_NET *181 0.000492086

*CONN
*I *761:ZN O *C 330.68 132.72 *L 0 *D ND3D0BWP7T
*I *742:A2 I *C 331.24 134.96 *L 0.0144 *D NR2XD2BWP7T

*CAP
1 *761:ZN 6.32471e-05
2 *181:2 4.55491e-05
3 *181:3 0.00038329

*RES
1 *181:3 *181:2 7.81478071
2 *761:ZN *181:2 0.253036
3 *742:A2 *181:3 6.98353
*END

*D_NET *182 0.00058099

*CONN
*I *760:ZN O *C 752.92 138.88 *L 0 *D IND3D1BWP7T
*I *750:A2 I *C 751.8 134.96 *L 0.0144 *D NR2XD2BWP7T

*CAP
1 *182:3 0.00058099

*RES
1 *182:3 *182:2 1.24696
2 *760:ZN *182:2 6.98348808
3 *750:A2 *182:3 6.98348808
*END

*D_NET *183 0.00053232

*CONN
*I *759:ZN O *C 466.2 141.12 *L 0 *D INVD1BWP7T
*I *754:B I *C 466.4925 143.625 *L 0.00955 *D HA1D0BWP7T

*CAP
1 *183:2 6.55665e-05
2 *183:3 0.00046675

*RES
1 *759:ZN *183:3 6.98354
2 *183:3 *183:2 8.02260399
3 *183:2 *754:B 0.126455
*END

*D_NET *184 0.0181133

*CONN
*I *758:ZN O *C 472.36 140.56 *L 0 *D NR2D2BWP7T
*I *757:A1 I *C 588 147.5875 *L 0.00434 *D ND3D1BWP7T
*I *752:B I *C 586.3075 155.415 *L 0.00955 *D HA1D0BWP7T

*CAP
1 *184:3 0.000210802
2 *184:4 0.000624614
3 *184:5 0.000286483
4 *184:6 0.000675606
5 *184:7 3.7083e-05
6 *184:8 0.000445374
7 *184:9 0.000551336
8 *184:10 0.000563047
9 *184:11 0.000780884
10 *184:12 0.000312729
11 *184:13 0.000827463
12 *184:14 0.000263164
13 *184:15 0.00027068
14 *184:16 4.2443e-05
15 *184:17 3.11258e-05
16 *184:18 0.000193134
17 *184:19 0.000776893
18 *184:20 0.000669387
19 *184:21 0.000492347
20 *184:22 0.000524274
21 *184:23 8.14631e-05
22 *184:24 7.52001e-05
23 *184:25 0.000346477
24 *184:26 0.000157945
25 *184:28 8.62259e-06
26 *184:29 0.000496644
27 *184:30 7.10053e-05
28 *184:31 0.00095453
29 *184:33 0.000392284
30 *184:34 0.000270388
31 *184:3 *7:36 0.00274434
32 *184:14 *28:8 0.00132357
33 *184:8 *118:8 0.00177398
34 *184:6 *71:12 0.00083796

*RES
1 *184:16 *184:9 0.207891
2 *184:9 *184:6 2.83198
3 *184:8 *184:6 5.62387
4 *184:8 *184:10 5.62387
5 *184:11 *184:10 5.62387
6 *184:11 *184:13 5.62387
7 *184:15 *184:13 12.2191486
8 *184:15 *184:30 0.610435
9 *184:30 *184:31 0.207891
10 *184:31 *184:32 3.35106
11 *184:25 *184:32 0.389679
12 *184:25 *184:27 0.857294
13 *184:19 *184:27 0.59757
14 *184:19 *184:22 1.98736
15 *757:A1 *184:22 6.98346
16 *184:22 *184:12 1.47705
17 *184:12 *184:17 8.00036
18 *184:17 *752:B 0.0399002
19 *184:26 *184:16 2.27319
20 *184:21 *184:26 3.31227
21 *184:21 *184:24 0.233808
22 *184:5 *184:24 1.87046
23 *184:7 *184:5 0.207891
24 *184:7 *184:3 0.934112
25 *184:4 *184:3 3.40419
26 *184:4 *184:34 0.233808
27 *184:34 *184:14 7.59408
28 *184:14 *184:28 0.636352
29 *184:20 *184:28 0.181975
30 *184:20 *184:23 2.07817
31 *184:23 *184:29 0.207891
32 *184:33 *184:29 8.45119
33 *184:33 *184:18 8.02254
34 *758:ZN *184:18 6.98346
*END

*D_NET *185 0.00911705

*CONN
*I *757:ZN O *C 588.28 148.96 *L 0 *D ND3D1BWP7T
*I *756:I I *C 618.52 147.84 *L 0.00498 *D INVD1BWP7T
*I *755:A1 I *C 664.44 143.36 *L 0.0063 *D NR2XD1BWP7T

*CAP
1 *185:3 9.90143e-05
2 *185:4 0.00109424
3 *185:5 0.00141772
4 *185:6 0.000559841
5 *185:7 0.000211657
6 *185:9 0.00058937
7 *185:11 0.000129885
8 *185:12 0.00098891
9 *185:13 0.000363738
10 *185:14 0.000801936
11 *185:15 0.000846435
12 *185:16 0.00130285
13 *185:5 *186:2 0.00071146

*RES
1 *185:15 *185:4 2.90764
2 *185:13 *185:4 4.37909
3 *185:9 *185:13 6.98349
4 *185:9 *185:3 8.43827
5 *185:3 *756:I 0.253068
6 *185:13 *185:17 1.4418
7 *185:16 *185:17 0.233675
8 *185:16 *185:5 5.40082
9 *185:11 *185:5 7.2505
10 *185:11 *185:14 0.207872
11 *185:14 *185:10 10.1137
12 *185:7 *185:10 0.207872
13 *755:A1 *185:7 6.98349
14 *185:12 *185:15 0.207872
15 *185:12 *185:6 10.5035267
16 *185:6 *185:8 1.45478
17 *757:ZN *185:8 6.98349
*END

*D_NET *186 0.00527416

*CONN
*I *756:ZN O *C 619.64 148.96 *L 0 *D INVD1BWP7T
*I *748:B I *C 658.0125 147.575 *L 0.00955 *D HA1D0BWP7T

*CAP
1 *756:ZN 0.000185605
2 *186:2 0.00157092
3 *186:3 2.131e-05
4 *186:4 0.0013292
5 *186:5 0.000339809
6 *186:6 0.000381062
7 *186:7 7.72576e-05
8 *186:8 4.76777e-05
9 *186:9 0.000311883
10 *186:10 0.00029798
11 *186:2 *185:5 0.00071146

*RES
1 *186:10 *186:5 7.59398508
2 *186:5 *186:8 7.39912
3 *756:ZN *186:8 0.759015
4 *186:4 *186:10 0.233704
5 *186:4 *186:2 4.98522
6 *186:3 *186:2 6.83485
7 *186:3 *186:6 0.207776
8 *186:6 *186:9 7.61991358
9 *186:9 *186:7 7.29517
10 *186:7 *748:B 0.0398808
*END

*D_NET *187 0.0170201

*CONN
*I *755:ZN O *C 663.32 142.8 *L 0 *D NR2XD1BWP7T
*I *753:A1 I *C 765.24 140 *L 0.00435 *D ND2D1BWP7T
*I *744:B I *C 772.8125 151.465 *L 0.00955 *D HA1D0BWP7T

*CAP
1 *187:3 0.00134369
2 *187:4 2.17883e-07
3 *187:5 0.000227942
4 *187:6 0.000723845
5 *187:7 7.04489e-06
6 *187:8 0.000100807
7 *187:9 0.000163703
8 *187:10 0.00237983
9 *187:11 0.000796436
10 *187:12 0.00135019
11 *187:13 0.000591735
12 *187:14 0.000536065
13 *187:15 0.000240688
14 *187:16 0.000373234
15 *187:17 9.37624e-05
16 *187:18 0.000146526
17 *187:19 4.39761e-05
18 *187:20 0.000237747
19 *187:21 0.00013694
20 *187:22 0.00140251
21 *187:23 0.000124484
22 *187:24 0.000754675
23 *187:25 8.37398e-05
24 *187:26 0.000580078
25 *187:27 7.74575e-05
26 *187:28 0.000258083
27 *187:29 0.000215668
28 *187:30 0.000485807
29 *187:31 0.000471027
30 *187:3 *84:23 0.00071188
31 *187:6 *107:49 0.00087674
32 *187:12 *110:28 0.00066325
33 *187:11 *135:3 0.00082038

*RES
1 *187:25 *187:31 6.98348
2 *187:31 *187:22 8.23046
3 *187:30 *187:22 12.5495358
4 *187:29 *187:30 0.636515
5 *187:27 *187:29 0.207767
6 *187:26 *187:27 1.66252
7 *187:26 *187:28 0.181916
8 *187:28 *187:14 7.61999
9 *187:14 *753:A1 2.02406
10 *187:30 *187:15 1.37318
11 *187:4 *187:15 0.497301
12 *187:5 *187:4 8.11901
13 *187:3 *187:5 5.62389
14 *187:3 *187:12 5.62389
15 *187:24 *187:12 4.04773
16 *187:21 *187:24 0.103979
17 *187:13 *187:21 2.88366
18 *187:13 *187:18 0.103979
19 *187:18 *187:11 4.31639
20 *187:10 *187:11 10.0234
21 *187:10 *187:17 0.23381
22 *187:17 *187:16 1.19835
23 *187:23 *187:16 0.464173
24 *187:20 *187:23 0.207767
25 *187:20 *187:7 7.59395
26 *187:7 *187:8 0.497301
27 *187:9 *187:8 0.554749
28 *187:19 *187:9 0.207767
29 *187:6 *187:19 2.27319
30 *755:ZN *187:6 6.98348
31 *187:25 *744:B 0.126575
*END

*D_NET *188 0.00114502

*CONN
*I *754:CO O *C 467.88 142.8 *L 0 *D HA1D0BWP7T
*I *751:A1 I *C 473.48 147.84 *L 0.00651 *D CKXOR2D1BWP7T

*CAP
1 *754:CO 0.000547908
2 *188:2 3.34815e-05
3 *188:3 0.00056363

*RES
1 *751:A1 *188:3 6.98355
2 *188:3 *188:2 8.43825054
3 *754:CO *188:2 2.53008
*END

*D_NET *189 0.00165526

*CONN
*I *430:I I *C 765.24 135.52 *L 0.00402 *D CKND1BWP7T
*I *753:ZN O *C 765.8 140.56 *L 0 *D ND2D1BWP7T
*I *750:A1 I *C 755.72 135.52 *L 0.0124 *D NR2XD2BWP7T

*CAP
1 *750:A1 0.000111746
2 *189:3 0.00085353
3 *189:5 0.000689974

*RES
1 *189:5 *189:4 1.66254
2 *753:ZN *189:4 6.98348808
3 *430:I *189:5 6.98348808
4 *430:I *189:3 3.4065
5 *750:A1 *189:3 0.388516
*END

*D_NET *190 0.00685444

*CONN
*I *430:ZN O *C 766.36 134.4 *L 0 *D CKND1BWP7T
*I *749:A1 I *C 756.84 143.36 *L 0.00313 *D INR2XD0BWP7T
*I *740:B I *C 799.6675 139.735 *L 0.00955 *D HA1D0BWP7T

*CAP
1 *430:ZN 0.000366666
2 *749:A1 0.000107823
3 *190:3 0.000106189
4 *190:4 0.00121799
5 *190:5 0.000753573
6 *190:6 3.98897e-05
7 *190:7 0.00017982
8 *190:8 0.00016009
9 *190:10 0.000262479
10 *190:11 3.83986e-06
11 *190:12 0.000772589
12 *190:13 0.00133854
13 *190:14 0.000402246
14 *190:5 *87:4 0.00066398
15 *190:13 *89:4 0.000478729973

*RES
1 *190:14 *190:5 1.6043
2 *190:11 *190:5 3.59121
3 *190:10 *190:11 0.233721
4 *190:10 *190:8 7.59398
5 *190:3 *190:8 6.98341
6 *190:3 *740:B 0.126421
7 *190:13 *190:14 0.207731
8 *190:13 *190:12 12.1661129
9 *190:12 *190:7 8.23036
10 *190:7 *190:9 0.266022
11 *190:9 *190:4 5.41754
12 *749:A1 *190:4 0.388545
13 *190:12 *190:6 8.02262
14 *430:ZN *190:6 1.51798
*END

*D_NET *191 0.00080067

*CONN
*I *752:CO O *C 584.92 156.24 *L 0 *D HA1D0BWP7T
*I *747:A1 I *C 588.28 159.04 *L 0.00651 *D CKXOR2D1BWP7T

*CAP
1 *191:2 1.35207e-06
2 *191:3 0.000210879
3 *191:4 0.00035729
4 *191:5 0.000231149

*RES
1 *752:CO *191:5 6.98348808
2 *191:5 *191:4 0.61048
3 *191:4 *191:3 1.24696
4 *191:3 *191:2 0.428583
5 *747:A1 *191:2 6.98348808
*END

*D_NET *192 0.00076066

*CONN
*I *749:ZN O *C 755.16 142.8 *L 0 *D INR2XD0BWP7T
*I *738:B I *C 752.0675 147.575 *L 0.00955 *D HA1D0BWP7T

*CAP
1 *192:2 7.97425e-05
2 *192:3 0.00050747
3 *192:4 0.000171549
4 *192:5 1.89716e-06

*RES
1 *192:3 *192:5 0.597509
2 *192:4 *192:5 0.220769
3 *749:ZN *192:4 6.98352
4 *192:3 *192:2 7.5160017
5 *192:2 *738:B 0.0399104
*END

*D_NET *193 0.00050462

*CONN
*I *748:CO O *C 659.4 148.4 *L 0 *D HA1D0BWP7T
*I *743:A1 I *C 659.4 151.2 *L 0.00651 *D CKXOR2D1BWP7T

*CAP
1 *193:3 0.00050462

*RES
1 *743:A1 *193:2 6.98348808
2 *193:3 *193:2 1.03917
3 *748:CO *193:3 6.98348808
*END

*D_NET *194 0.00722536

*CONN
*I *746:ZN O *C 276.92 132.72 *L 0 *D ND2D1BWP7T
*I *745:I I *C 299.88 135.52 *L 0.00498 *D INVD1BWP7T
*I *742:A1 I *C 327.32 135.52 *L 0.0124 *D NR2XD2BWP7T

*CAP
1 *194:3 0.000723398
2 *194:4 0.000963887
3 *194:5 5.96295e-05
4 *194:6 0.000592253
5 *194:7 4.23678e-05
6 *194:8 0.00130478
7 *194:9 0.000688536
8 *194:10 0.000208613
9 *194:11 0.000415793
10 *194:13 0.00019173
11 *194:14 0.000832961
12 *194:15 0.000193422
13 *194:16 0.000141518
14 *194:17 0.000119159
15 *194:18 2.44889e-06
16 *194:3 *143:6 0.00028441
17 *194:4 *145:3 0.00046047

*RES
1 *746:ZN *194:11 6.98355
2 *194:11 *194:12 1.03917
3 *194:14 *194:12 9.88005733
4 *194:3 *194:14 0.233674
5 *194:3 *194:7 2.4679
6 *194:7 *194:15 0.207895
7 *194:15 *194:16 0.636499
8 *194:13 *194:16 6.98355
9 *194:9 *194:13 6.98355
10 *194:9 *745:I 3.03596
11 *194:16 *194:18 0.610569
12 *194:17 *194:18 0.233674
13 *194:17 *194:19 0.597604
14 *194:6 *194:19 0.233674
15 *194:6 *194:4 2.42147
16 *194:5 *194:4 4.42368
17 *194:10 *194:5 6.98355
18 *194:10 *194:8 7.19129
19 *194:8 *742:A1 5.06003
*END

*D_NET *195 0.004968

*CONN
*I *745:ZN O *C 301 134.4 *L 0 *D INVD1BWP7T
*I *741:A1 I *C 301.56 132.16 *L 0.00283 *D CKAN2D1BWP7T
*I *733:B I *C 267.1075 139.735 *L 0.00955 *D HA1D0BWP7T

*CAP
1 *733:B 1.72107e-05
2 *195:3 8.78382e-05
3 *195:4 0.00259886
4 *195:5 4.72304e-05
5 *195:6 0.000190944
6 *195:7 0.001028
7 *195:8 0.000302655
8 *195:10 8.54985e-05
9 *195:11 0.000325418
10 *195:12 3.8744e-05
11 *195:13 6.66222e-06
12 *195:14 0.000238928

*RES
1 *195:12 *195:14 0.207789
2 *195:14 *195:4 0.96748
3 *195:13 *195:4 9.83934879
4 *195:11 *195:13 0.441552
5 *195:11 *195:9 7.59406
6 *195:7 *195:9 1.45482
7 *745:ZN *195:7 6.98345
8 *195:7 *195:3 8.6460638
9 *195:3 *741:A1 0.25298
10 *195:10 *195:12 0.415578
11 *195:8 *195:10 0.207789
12 *195:8 *195:6 7.59406
13 *195:6 *195:5 7.19124
14 *733:B *195:5 0.126565
*END

*D_NET *196 0.00061404

*CONN
*I *744:CO O *C 774.2 150.64 *L 0 *D HA1D0BWP7T
*I *734:B I *C 773.9075 155.415 *L 0.00955 *D HA1D0BWP7T

*CAP
1 *196:2 0.000107567
2 *196:3 0.00049985
3 *196:4 6.62043e-06

*RES
1 *744:CO *196:4 6.98354
2 *196:3 *196:4 0.194832
3 *196:3 *196:2 8.03555965
4 *196:2 *734:B 0.126537
*END

*D_NET *197 0.013525

*CONN
*I *742:ZN O *C 329.56 134.4 *L 0 *D NR2XD2BWP7T
*I *739:A1 I *C 435.4 143.36 *L 0.00255 *D AN3D1BWP7T
*I *729:B I *C 437.9325 151.465 *L 0.00955 *D HA1D0BWP7T

*CAP
1 *197:3 0.000324621
2 *197:4 0.00129294
3 *197:5 0.000971555
4 *197:7 0.000898873
5 *197:8 0.000699571
6 *197:9 0.000999787
7 *197:10 0.000984043
8 *197:11 0.00104477
9 *197:12 0.000147672
10 *197:13 0.000694599
11 *197:14 0.000274174
12 *197:15 0.000147553
13 *197:16 8.21318e-05
14 *197:18 0.000500268
15 *197:19 2.90016e-05
16 *197:20 0.000220353
17 *197:21 8.51898e-05
18 *197:22 0.000477994
19 *197:23 0.000556378
20 *197:24 7.12414e-05
21 *197:3 *7:35 0.00045503
22 *197:11 *145:3 0.00050354
23 *197:11 *155:18 0.00130464
24 *197:7 *28:5 0.00075906

*RES
1 *739:A1 *197:19 6.98353
2 *197:18 *197:19 0.636467
3 *197:4 *197:18 4.55917
4 *197:15 *197:4 7.82779
5 *197:6 *197:15 0.207795
6 *197:6 *197:3 3.27064
7 *197:5 *197:3 5.62381
8 *197:5 *197:9 5.62381
9 *197:7 *197:9 5.62381
10 *197:7 *197:8 5.62381
11 *197:10 *197:8 5.62381
12 *197:10 *197:11 5.62381
13 *197:14 *197:11 1.40765
14 *197:14 *197:12 0.233707
15 *197:12 *197:13 7.59396
16 *197:13 *197:17 2.0782
17 *742:ZN *197:17 6.98353
18 *197:18 *197:20 1.01319
19 *197:20 *197:21 0.623512
20 *197:21 *197:23 0.207795
21 *197:23 *197:24 1.68853
22 *197:22 *197:24 0.181884
23 *197:22 *197:16 8.24338341
24 *197:16 *729:B 0.126539
*END

*D_NET *198 0.00373353

*CONN
*I *741:Z O *C 303.8 132.72 *L 0 *D CKAN2D1BWP7T
*I *730:B I *C 324.8125 143.625 *L 0.00955 *D HA1D0BWP7T

*CAP
1 *741:Z 0.00213585
2 *198:2 0.000189288
3 *198:3 6.4302e-05
4 *198:4 0.00134408

*RES
1 *198:4 *198:2 11.1399517
2 *741:Z *198:2 9.36109
3 *198:3 *198:4 6.98355
4 *198:3 *730:B 0.126467
*END

*D_NET *199 0.00328255

*CONN
*I *740:CO O *C 798.28 140.56 *L 0 *D HA1D0BWP7T
*I *736:A1 I *C 807.24 155.68 *L 0.00651 *D CKXOR2D1BWP7T

*CAP
1 *199:2 0.00051988
2 *199:3 0.00158873
3 *199:4 9.40608e-06
4 *199:6 0.000166206
5 *199:7 0.000998329

*RES
1 *199:3 *199:5 3.53306
2 *199:7 *199:5 10.3086596
3 *199:6 *199:7 6.98354
4 *199:6 *199:2 0.54189
5 *199:4 *199:2 1.53648
6 *736:A1 *199:4 6.98354
7 *740:CO *199:3 6.98354
*END

*D_NET *200 0.00647597

*CONN
*I *739:Z O *C 438.2 142.24 *L 0 *D AN3D1BWP7T
*I *735:A1 I *C 488.6 135.52 *L 0.00445 *D AN3D2BWP7T
*I *727:B I *C 487.1875 143.625 *L 0.00955 *D HA1D0BWP7T

*CAP
1 *739:Z 0.00123927
2 *200:3 0.000197947
3 *200:4 0.000327801
4 *200:5 0.00148206
5 *200:6 6.27334e-05
6 *200:7 0.00145433
7 *200:8 3.3583e-05
8 *200:9 0.000650039
9 *200:11 0.000551529
10 *200:3 *21:4 0.00019855
11 *200:3 *72:18 0.00027814

*RES
1 *200:6 *200:10 6.98355
2 *200:3 *200:10 0.428653
3 *200:3 *200:12 0.38972
4 *200:11 *200:12 2.40295
5 *735:A1 *200:11 6.98355
6 *200:10 *200:4 7.93053
7 *200:5 *200:4 5.62388
8 *200:5 *200:7 5.62388
9 *200:9 *200:7 8.50505066
10 *200:8 *200:9 6.98355
11 *739:Z *200:8 5.566
12 *200:6 *727:B 0.126532
*END

*D_NET *201 0.00076016

*CONN
*I *738:CO O *C 750.68 148.4 *L 0 *D HA1D0BWP7T
*I *732:A1 I *C 749.56 143.36 *L 0.00651 *D CKXOR2D1BWP7T

*CAP
1 *201:2 0.00014612
2 *201:3 0.00061404

*RES
1 *732:A1 *201:3 6.98355
2 *201:3 *201:2 8.43825054
3 *201:2 *738:CO 0.506017
*END

*D_NET *202 0.00142174

*CONN
*I *737:CO O *C 241.08 134.96 *L 0 *D HA1D0BWP7T
*I *726:B I *C 241.3725 147.575 *L 0.00955 *D HA1D0BWP7T

*CAP
1 *726:B 1.72184e-05
2 *202:2 4.82612e-05
3 *202:3 0.00135626

*RES
1 *737:CO *202:3 6.98355
2 *202:3 *202:2 11.1399517
3 *726:B *202:2 0.126467
*END

*D_NET *203 0.0185074

*CONN
*I *735:Z O *C 485.24 134.96 *L 0 *D AN3D2BWP7T
*I *731:A1 I *C 628.6 132.16 *L 0.00448 *D AN3XD1BWP7T
*I *722:B I *C 628.3075 143.625 *L 0.00955 *D HA1D0BWP7T

*CAP
1 *203:3 9.7165e-05
2 *203:4 0.0012762
3 *203:5 0.00010551
4 *203:6 0.0014118
5 *203:7 6.95246e-05
6 *203:8 0.000490939
7 *203:9 0.000873732
8 *203:10 0.000779862
9 *203:11 0.000866265
10 *203:12 0.000235461
11 *203:13 0.000108303
12 *203:14 0.00205609
13 *203:15 0.000111221
14 *203:16 0.000194236
15 *203:17 0.000392802
16 *203:18 3.9688e-05
17 *203:20 0.00117075
18 *203:21 0.000179396
19 *203:22 0.000500445
20 *203:23 0.000110813
21 *203:24 4.12567e-05
22 *203:25 0.000510799
23 *203:26 6.55401e-05
24 *203:28 0.000174533
25 *203:3 *7:38 0.0007028
26 *203:6 *140:7 0.00050589
27 *203:8 *117:11 0.0007833
28 *203:3 *147:18 0.00021254
29 *203:14 *147:18 0.00026376
30 *203:15 *147:18 6.274e-05
31 *203:4 *147:19 0.00015748
32 *203:3 *147:19 2.907e-05
33 *203:5 *147:19 0.00013693
34 *203:16 *147:19 3.241e-05
35 *203:8 *147:20 8.838e-05
36 *203:9 *147:20 8.582e-05
37 *203:17 *147:20 6.438e-05
38 *203:18 *147:20 1.27e-06
39 *203:19 *147:20 2.898e-05
40 *203:10 *147:20 0.00023451
41 *203:6 *147:15 0.00027234
42 *203:20 *147:15 4.063e-05
43 *203:13 *147:15 0.00015029
44 *203:21 *147:6 6.414e-05
45 *203:22 *147:6 0.00017279
46 *203:14 *147:6 6.228e-05
47 *203:15 *147:6 0.00015179
48 *203:4 *147:22 7.876e-05
49 *203:3 *147:22 0.00024016
50 *203:16 *147:22 4.802e-05
51 *203:14 *147:22 0.00012346
52 *203:4 *147:23 6.956e-05
53 *203:5 *147:23 2.304e-05
54 *203:9 *147:23 0.00022256
55 *203:17 *147:23 9.228e-05
56 *203:18 *147:23 3.188e-05
57 *203:11 *147:12 3.661e-05
58 *203:8 *147:12 0.00025514
59 *203:10 *147:12 0.00010744
60 *203:11 *147:10 2.538e-05
61 *203:6 *147:10 0.00036385
62 *203:12 *147:10 5.474e-05
63 *203:13 *147:10 6.178e-05
64 *203:11 *147:26 3.09e-06
65 *203:11 *147:29 0.00014668
66 *203:8 *147:29 0.00016702
67 *203:6 *147:29 2.584e-05
68 *203:23 *147:29 9.361e-05
69 *203:7 *147:29 3.858e-05
70 *203:12 *147:29 3.09999448e-05

*RES
1 *203:10 *203:8 4.33711
2 *203:23 *203:8 5.43055
3 *203:11 *203:23 0.233678
4 *203:11 *203:7 4.54624
5 *203:7 *203:12 0.207823
6 *203:12 *203:6 1.24497
7 *203:13 *203:6 8.3278
8 *203:20 *203:13 6.9835
9 *203:28 *203:20 0.415645
10 *731:A1 *203:28 6.9835
11 *203:20 *203:26 10.7243061
12 *203:26 *722:B 0.126494
13 *203:19 *203:10 0.207823
14 *203:17 *203:19 2.26019
15 *203:17 *203:18 0.233678
16 *203:9 *203:18 3.94863
17 *203:24 *203:9 0.207823
18 *203:24 *203:5 0.675833
19 *203:4 *203:5 7.61122
20 *203:4 *203:16 0.233678
21 *203:16 *203:3 3.61055
22 *203:14 *203:3 8.83296
23 *203:14 *203:15 0.103911
24 *203:22 *203:15 1.68844
25 *203:21 *203:22 0.103911
26 *203:21 *203:25 7.59404
27 *203:25 *203:27 0.831291
28 *735:Z *203:27 6.9835
*END

*D_NET *204 0.00279322

*CONN
*I *734:CO O *C 772.52 156.24 *L 0 *D HA1D0BWP7T
*I *723:B I *C 779.5075 143.625 *L 0.00955 *D HA1D0BWP7T

*CAP
1 *723:B 1.71804e-05
2 *204:2 0.00148342
3 *204:3 8.76901e-05
4 *204:4 0.000475301
5 *204:5 9.018e-05
6 *204:6 3.78919e-05
7 *204:7 0.000601585

*RES
1 *204:2 *204:6 3.28898
2 *204:6 *204:7 6.98351
3 *204:7 *204:5 8.64607334
4 *723:B *204:5 0.12652
5 *204:4 *204:2 8.14883
6 *204:4 *204:3 8.31203
7 *204:3 *734:CO 0.253039
*END

*D_NET *205 0.0012501

*CONN
*I *733:CO O *C 265.72 140.56 *L 0 *D HA1D0BWP7T
*I *728:A1 I *C 267.4 147.84 *L 0.00651 *D CKXOR2D1BWP7T

*CAP
1 *205:2 5.52282e-06
2 *205:3 0.00054591
3 *205:4 0.000207976
4 *205:5 0.00049069

*RES
1 *733:CO *205:5 6.98348808
2 *205:5 *205:4 1.23396
3 *205:4 *205:3 0.62348
4 *205:3 *205:2 1.46775
5 *728:A1 *205:2 6.98348808
*END

*D_NET *206 0.00474393

*CONN
*I *731:Z O *C 631.96 132.72 *L 0 *D AN3XD1BWP7T
*I *720:B I *C 672.84 131.04 *L 0.0115 *D HA1D1BWP7T

*CAP
1 *731:Z 0.000163819
2 *206:2 0.00142594
3 *206:3 0.00142374
4 *206:4 0.000407688
5 *206:5 3.40737e-05
6 *206:6 0.000110315
7 *206:7 0.000198524
8 *206:8 0.000205095
9 *206:10 5.82256e-05
10 *206:11 0.000354619
11 *206:12 0.000361887

*RES
1 *206:11 *206:3 1.04953
2 *206:6 *206:3 5.58784
3 *206:2 *206:6 0.233748
4 *206:2 *206:4 5.63395
5 *206:10 *206:4 1.40619
6 *206:10 *206:12 0.207829
7 *206:12 *206:7 7.82773685
8 *206:7 *206:9 0.207829
9 *720:B *206:9 6.98352
10 *206:8 *206:11 6.98352
11 *206:8 *206:5 7.39918
12 *731:Z *206:5 0.759053
*END

*D_NET *207 0.00044937

*CONN
*I *730:CO O *C 326.2 142.8 *L 0 *D HA1D0BWP7T
*I *725:A1 I *C 329.56 143.36 *L 0.00651 *D CKXOR2D1BWP7T

*CAP
1 *730:CO 0.00022224
2 *207:2 4.66692e-05
3 *207:3 0.000180461

*RES
1 *207:3 *207:2 7.37322283
2 *730:CO *207:2 1.012
3 *725:A1 *207:3 6.9835
*END

*D_NET *208 0.00039671

*CONN
*I *729:CO O *C 439.32 150.64 *L 0 *D HA1D0BWP7T
*I *724:A1 I *C 442.12 151.2 *L 0.00651 *D CKXOR2D1BWP7T

*CAP
1 *729:CO 0.000163479
2 *208:2 4.83593e-05
3 *208:3 0.00018487

*RES
1 *724:A1 *208:3 6.9835
2 *208:3 *208:2 7.37322283
3 *729:CO *208:2 0.758969
*END

*D_NET *209 0.00163869

*CONN
*I *727:CO O *C 485.8 142.8 *L 0 *D HA1D0BWP7T
*I *721:A1 I *C 484.68 132.16 *L 0.00651 *D CKXOR2D1BWP7T

*CAP
1 *209:2 0.000117739
2 *209:3 4.78555e-05
3 *209:4 0.00147309

*RES
1 *209:3 *209:2 0.112097
2 *727:CO *209:2 0.394008
3 *209:4 *209:3 10.9321289
4 *721:A1 *209:4 6.98354
*END

*D_NET *210 0.00299949

*CONN
*I *726:CO O *C 242.76 148.4 *L 0 *D HA1D0BWP7T
*I *717:B I *C 224.0125 151.465 *L 0.00955 *D HA1D0BWP7T

*CAP
1 *726:CO 2.33968e-07
2 *210:2 8.37607e-05
3 *210:3 0.000487268
4 *210:4 5.11806e-06
5 *210:5 0.000394032
6 *210:6 9.7828e-05
7 *210:7 0.00191664
8 *210:8 1.46523e-05

*RES
1 *210:6 *210:8 6.98353
2 *210:8 *210:3 0.317666
3 *210:7 *210:3 6.74826
4 *210:5 *210:7 6.98353
5 *210:5 *210:2 7.81478071
6 *210:2 *717:B 0.126518
7 *210:6 *210:4 7.19125
8 *726:CO *210:4 0.253036
*END

*D_NET *211 0.00075817

*CONN
*I *723:CO O *C 778.12 142.8 *L 0 *D HA1D0BWP7T
*I *719:A1 I *C 780.36 140 *L 0.00651 *D CKXOR2D1BWP7T

*CAP
1 *211:2 8.64157e-06
2 *211:3 0.00039798
3 *211:4 1.17873e-05
4 *211:5 0.00033976

*RES
1 *211:3 *211:2 0.844271
2 *211:5 *211:2 0.805377
3 *211:5 *211:4 0.220791
4 *723:CO *211:4 6.98348808
5 *719:A1 *211:3 6.98348808
*END

*D_NET *212 0.00077111

*CONN
*I *722:CO O *C 626.92 142.8 *L 0 *D HA1D0BWP7T
*I *718:A1 I *C 626.36 147.84 *L 0.00651 *D CKXOR2D1BWP7T

*CAP
1 *212:2 0.000112881
2 *212:3 0.000105962
3 *212:4 0.00055227

*RES
1 *212:4 *212:3 8.23042774
2 *212:2 *212:3 0.265992
3 *212:2 *722:CO 0.239996
4 *718:A1 *212:4 6.98348
*END

*D_NET *213 0.00153815

*CONN
*I *720:CO O *C 675.08 133.28 *L 0 *D HA1D1BWP7T
*I *716:A1 I *C 687.96 131.6 *L 0.00584 *D XOR2D1BWP7T

*CAP
1 *720:CO 0.00129553
2 *213:2 5.49763e-05
3 *213:3 0.000187643

*RES
1 *720:CO *213:2 5.313
2 *213:3 *213:2 7.37322283
3 *716:A1 *213:3 6.9835
*END

*D_NET *214 0.00075285

*CONN
*I *717:CO O *C 225.4 150.64 *L 0 *D HA1D0BWP7T
*I *715:A1 I *C 225.4 155.68 *L 0.00651 *D CKXOR2D1BWP7T

*CAP
1 *214:2 6.40184e-05
2 *214:3 0.00039692
3 *214:4 9.0728e-06
4 *214:5 6.162e-05
5 *214:6 0.000221218

*RES
1 *715:A1 *214:2 6.98348808
2 *214:3 *214:2 0.844271
3 *214:5 *214:3 0.207791
4 *214:6 *214:5 0.415689
5 *214:6 *214:4 0.194897
6 *717:CO *214:4 6.98348808
*END

*D_NET *215 0.0122776

*CONN
*I *770:ZN O *C 644.28 171.92 *L 0 *D TIELBWP7T
*I *431:TE I *C 729.4 139.44 *L 0.0039 *D CKLNQD6BWP7T

*CAP
1 *770:ZN 0.000528663
2 *431:TE 5.96457e-05
3 *215:2 0.000883214
4 *215:3 0.00125578
5 *215:4 1.90838e-05
6 *215:5 3.37361e-05
7 *215:6 0.0019409
8 *215:7 0.000327926
9 *215:8 0.00234205
10 *215:9 0.00137703
11 *215:10 4.62084e-05
12 *215:11 0.000820066
13 *215:12 7.04027e-05
14 *215:13 0.000221536
15 *215:15 0.00165814
16 *215:2 *7:33 0.00069319

*RES
1 *215:5 *215:6 8.05659
2 *215:15 *215:6 6.47808
3 *215:13 *215:15 6.98354
4 *215:13 *215:10 7.19135
5 *770:ZN *215:10 2.27707
6 *215:5 *215:11 0.207818
7 *215:11 *215:14 3.11727
8 *215:12 *215:14 0.23373
9 *215:12 *215:3 0.0479715
10 *215:2 *215:3 5.62388
11 *215:2 *215:7 5.62388
12 *215:7 *215:4 7.93649
13 *215:4 *215:8 7.77104
14 *215:9 *215:8 11.4739532
15 *431:TE *215:9 0.252989
*END

*D_NET *216 0.00326447

*CONN
*I *771:ZN O *C 607.32 171.92 *L 0 *D TIELBWP7T
*I *432:TE I *C 607.88 147.28 *L 0.0039 *D CKLNQD4BWP7T

*CAP
1 *216:2 0.000945549
2 *216:3 0.00018756
3 *216:5 0.00135074
4 *216:6 7.79301e-05
5 *216:7 0.000294283
6 *216:8 0.000408406

*RES
1 *216:7 *216:6 0.636374
2 *216:8 *216:6 0.103896
3 *216:8 *216:2 0.944544
4 *216:3 *216:2 2.79634
5 *216:5 *216:3 0.103896
6 *216:5 *216:4 4.55915
7 *771:ZN *216:4 6.98348808
8 *432:TE *216:7 6.98348808
*END

*D_NET *217 0.00230758

*CONN
*I *658:ZN O *C 357.245 150.4925 *L 0 *D INR2D1BWP7T
*I *571:D I *C 355.0775 139.7375 *L 0.0041 *D DFKCNQD1BWP7T

*CAP
1 *571:D 1.1384e-05
2 *217:2 9.87334e-05
3 *217:3 0.00094917
4 *217:4 0.000304094
5 *217:5 0.000605537
6 *217:6 0.000338665

*RES
1 *217:6 *217:7 0.84419
2 *658:ZN *217:7 6.98354
3 *217:4 *217:6 1.03914
4 *217:3 *217:4 2.286
5 *217:3 *217:5 0.181958
6 *217:5 *217:2 8.03555965
7 *571:D *217:2 0.126537
*END

*D_NET *218 0.00078701

*CONN
*I *657:ZN O *C 301.315 156.3875 *L 0 *D INR2D1BWP7T
*I *570:D I *C 301.8025 151.4625 *L 0.0041 *D DFKCNQD1BWP7T

*CAP
1 *218:2 0.00020837
2 *218:3 0.00049765
3 *218:4 8.09863e-05

*RES
1 *657:ZN *218:4 6.9835
2 *218:4 *218:3 1.12076
3 *218:3 *218:2 7.10966635
4 *218:2 *570:D 0.126493
*END

*D_NET *219 0.00067839

*CONN
*I *656:ZN O *C 278.355 150.4925 *L 0 *D INR2D1BWP7T
*I *569:D I *C 277.7975 155.4175 *L 0.0041 *D DFKCNQD1BWP7T

*CAP
1 *569:D 1.75182e-05
2 *219:2 6.40811e-05
3 *219:3 0.00030895
4 *219:4 0.000283549
5 *219:5 4.28999e-06

*RES
1 *219:3 *219:5 0.181964
2 *219:4 *219:5 0.636466
3 *656:ZN *219:4 6.98345
4 *219:3 *219:2 7.61991358
5 *569:D *219:2 0.126502
*END

*D_NET *220 0.00226056

*CONN
*I *655:ZN O *C 215.005 148.5475 *L 0 *D INR2D1BWP7T
*I *568:D I *C 206.1175 147.5775 *L 0.0041 *D DFKCNQD1BWP7T

*CAP
1 *568:D 1.72761e-05
2 *220:2 0.000288914
3 *220:3 6.41334e-05
4 *220:4 4.42706e-05
5 *220:5 0.0006682
6 *220:6 0.00069759
7 *220:7 0.000480175

*RES
1 *655:ZN *220:6 6.98354
2 *220:6 *220:4 8.02260399
3 *220:4 *220:2 1.17641
4 *220:5 *220:2 2.61858
5 *220:5 *220:7 6.98354
6 *220:7 *220:3 8.02260399
7 *568:D *220:3 0.126455
*END

*D_NET *221 0.00147203

*CONN
*I *654:ZN O *C 206.115 142.6525 *L 0 *D INR2D1BWP7T
*I *567:D I *C 206.1175 131.8975 *L 0.0041 *D DFKCNQD1BWP7T

*CAP
1 *567:D 1.72737e-05
2 *221:2 6.40654e-05
3 *221:3 0.0013907

*RES
1 *221:3 *221:2 11.1399517
2 *567:D *221:2 0.126467
3 *654:ZN *221:3 6.98355
*END

*D_NET *222 0.00130662

*CONN
*I *653:ZN O *C 166.845 134.8125 *L 0 *D INR2D1BWP7T
*I *566:D I *C 168.5225 131.8975 *L 0.0041 *D DFKCNQD1BWP7T

*CAP
1 *566:D 1.11655e-05
2 *222:2 0.00010001
3 *222:3 0.00087319
4 *222:4 8.18095e-06
5 *222:5 0.000314074

*RES
1 *566:D *222:2 0.126489
2 *222:5 *222:2 7.82773685
3 *222:3 *222:5 0.805396
4 *222:3 *222:4 2.09119
5 *653:ZN *222:4 6.98352
*END

*D_NET *223 0.00083549

*CONN
*I *652:ZN O *C 165.165 150.4925 *L 0 *D INR2D1BWP7T
*I *565:D I *C 166.8425 155.4175 *L 0.0041 *D DFKCNQD1BWP7T

*CAP
1 *565:D 1.75216e-05
2 *223:2 6.76829e-05
3 *223:3 0.00038136
4 *223:4 0.000212202
5 *223:5 0.000156728

*RES
1 *223:3 *223:4 1.02618
2 *223:4 *223:5 0.623514
3 *223:5 *223:2 7.20426702
4 *565:D *223:2 0.126528
5 *652:ZN *223:3 6.98353
*END

*D_NET *224 0.0008787

*CONN
*I *651:ZN O *C 155.715 150.4925 *L 0 *D INR2D1BWP7T
*I *564:D I *C 156.2025 159.3025 *L 0.0041 *D DFKCNQD1BWP7T

*CAP
1 *224:2 8.05183e-05
2 *224:3 0.00079818

*RES
1 *651:ZN *224:3 6.98351
2 *224:3 *224:2 9.47736645
3 *224:2 *564:D 0.126536
*END

*D_NET *225 0.00069918

*CONN
*I *650:ZN O *C 153.72 134.96 *L 0 *D NR2XD0BWP7T
*I *563:D I *C 155.0825 131.8975 *L 0.0041 *D DFKCNQD1BWP7T

*CAP
1 *563:D 1.71804e-05
2 *225:2 6.40813e-05
3 *225:3 0.000219018
4 *225:4 1.87812e-05
5 *225:5 0.00038012

*RES
1 *650:ZN *225:4 6.98352
2 *225:3 *225:4 0.220728
3 *225:3 *225:5 0.389739
4 *225:5 *225:2 7.82773685
5 *563:D *225:2 0.126489
*END

*D_NET *226 0.00067079

*CONN
*I *649:ZN O *C 696.115 132.8675 *L 0 *D INR2D1BWP7T
*I *562:D I *C 696.0425 135.7825 *L 0.0041 *D DFKCNQD1BWP7T

*CAP
1 *226:2 0.000104948
2 *226:3 0.00056584

*RES
1 *226:3 *226:2 8.23042774
2 *226:2 *562:D 0.126465
3 *649:ZN *226:3 6.98348
*END

*D_NET *227 0.00068075

*CONN
*I *648:ZN O *C 720.195 172.0675 *L 0 *D INR2D1BWP7T
*I *579:D I *C 721.8025 167.1425 *L 0.0041 *D DFKCNQD1BWP7T

*CAP
1 *227:2 8.45586e-05
2 *227:3 0.00032707
3 *227:4 1.64296e-05
4 *227:5 0.000252688

*RES
1 *648:ZN *227:4 6.98345
2 *227:3 *227:4 0.636466
3 *227:3 *227:5 0.389739
4 *227:5 *227:2 7.61991358
5 *227:2 *579:D 0.126502
*END

*D_NET *228 0.00270141

*CONN
*I *647:ZN O *C 634.445 156.3875 *L 0 *D INR2D1BWP7T
*I *560:D I *C 637.2425 135.7825 *L 0.0041 *D DFKCNQD1BWP7T

*CAP
1 *228:2 0.00198411
2 *228:3 8.49533e-05
3 *228:4 0.000364912
4 *228:5 4.4384e-05
5 *228:6 7.22073e-05
6 *228:7 0.000150833

*RES
1 *228:2 *228:4 5.75035
2 *228:6 *228:4 1.12072
3 *647:ZN *228:6 6.98353
4 *228:2 *228:5 0.82875
5 *228:7 *228:5 0.18446
6 *228:7 *228:3 7.20426702
7 *228:3 *560:D 0.126528
*END

*D_NET *229 0.00064669

*CONN
*I *646:ZN O *C 637.245 156.3875 *L 0 *D INR2D1BWP7T
*I *559:D I *C 637.2425 151.4625 *L 0.0041 *D DFKCNQD1BWP7T

*CAP
1 *229:2 0.000189111
2 *229:3 0.00043103
3 *229:4 2.65517e-05

*RES
1 *646:ZN *229:4 6.9835
2 *229:4 *229:3 1.12076
3 *229:3 *229:2 7.10966635
4 *229:2 *559:D 0.126493
*END

*D_NET *230 0.00076408

*CONN
*I *645:ZN O *C 461.475 150.4925 *L 0 *D INR2D1BWP7T
*I *533:D I *C 460.3575 155.4175 *L 0.0041 *D DFKCNQD1BWP7T

*CAP
1 *533:D 1.75212e-05
2 *230:2 6.36321e-05
3 *230:3 0.00049751
4 *230:4 0.000185423

*RES
1 *230:3 *230:5 0.389786
2 *230:4 *230:5 0.220826
3 *645:ZN *230:4 6.98354
4 *230:3 *230:2 8.03555965
5 *533:D *230:2 0.126537
*END

*D_NET *231 0.00095952

*CONN
*I *644:ZN O *C 302.365 142.6525 *L 0 *D INR2D1BWP7T
*I *593:D I *C 302.9975 147.5775 *L 0.0041 *D DFKCNQD1BWP7T

*CAP
1 *593:D 1.11714e-05
2 *231:2 0.000103863
3 *231:3 0.000343472
4 *231:4 0.000119309
5 *231:5 0.00038171

*RES
1 *593:D *231:2 0.126502
2 *231:5 *231:2 7.61991358
3 *231:4 *231:5 0.207776
4 *231:3 *231:4 0.610537
5 *644:ZN *231:3 6.98345
*END

*D_NET *232 0.00257728

*CONN
*I *643:ZN O *C 671.475 134.8125 *L 0 *D INR2D1BWP7T
*I *561:D I *C 686.5225 139.7375 *L 0.0041 *D DFKCNQD1BWP7T

*CAP
1 *561:D 1.7525e-05
2 *232:2 0.00148385
3 *232:3 3.35556e-05
4 *232:4 6.40771e-05
5 *232:5 0.000221621
6 *232:6 0.000210934
7 *232:7 0.00054572

*RES
1 *232:2 *232:3 6.07207
2 *232:7 *232:3 8.43825054
3 *232:4 *232:7 6.98355
4 *561:D *232:4 0.12644
5 *232:6 *232:2 7.20424
6 *232:5 *232:6 0.402753
7 *643:ZN *232:5 6.98355
*END

*D_NET *233 0.00082114

*CONN
*I *642:ZN O *C 449.715 150.4925 *L 0 *D INR2D1BWP7T
*I *556:D I *C 447.9625 155.4175 *L 0.0041 *D DFKCNQD1BWP7T

*CAP
1 *556:D 1.11712e-05
2 *233:2 0.000100011
3 *233:3 0.0006199
4 *233:4 9.00598e-05

*RES
1 *556:D *233:2 0.126539
2 *233:3 *233:2 8.24338341
3 *233:3 *233:4 0.5976
4 *642:ZN *233:4 6.98353
*END

*D_NET *234 0.00079391

*CONN
*I *641:ZN O *C 432.355 156.3875 *L 0 *D INR2D1BWP7T
*I *555:D I *C 430.6775 159.3025 *L 0.0041 *D DFKCNQD1BWP7T

*CAP
1 *234:2 8.05174e-05
2 *234:3 0.0004668
3 *234:4 0.00024423
4 *234:5 1.50293e-06
5 *234:6 8.61872e-07

*RES
1 *641:ZN *234:6 6.98354
2 *234:4 *234:6 0.194832
3 *234:4 *234:5 0.2337
4 *234:3 *234:5 0.389786
5 *234:3 *234:2 8.03555965
6 *234:2 *555:D 0.126537
*END

*D_NET *235 0.00167347

*CONN
*I *640:ZN O *C 335.475 142.6525 *L 0 *D INR2D1BWP7T
*I *554:D I *C 330.4375 147.5775 *L 0.0041 *D DFKCNQD1BWP7T

*CAP
1 *554:D 1.75429e-05
2 *235:2 0.00041582
3 *235:3 6.28646e-05
4 *235:4 0.000543811
5 *235:5 0.00063343

*RES
1 *554:D *235:3 0.126526
2 *235:3 *235:5 6.98344
3 *235:5 *235:2 7.98846149
4 *235:6 *235:2 7.84889
5 *235:4 *235:6 1.24698
6 *640:ZN *235:4 6.98344
*END

*D_NET *236 0.00095699

*CONN
*I *639:ZN O *C 715.715 156.3875 *L 0 *D INR2D1BWP7T
*I *580:D I *C 717.3225 159.3025 *L 0.0041 *D DFKCNQD1BWP7T

*CAP
1 *236:2 8.44788e-05
2 *236:3 0.000130898
3 *236:4 0.0001493
4 *236:5 0.00059231

*RES
1 *639:ZN *236:3 6.98354
2 *236:3 *236:4 0.194832
3 *236:4 *236:5 0.415658
4 *236:5 *236:2 8.03555965
5 *236:2 *580:D 0.126537
*END

*D_NET *237 0.00134871

*CONN
*I *638:ZN O *C 497.875 132.8675 *L 0 *D INR2D1BWP7T
*I *558:D I *C 494.5175 135.7825 *L 0.0041 *D DFKCNQD1BWP7T

*CAP
1 *237:2 8.21482e-05
2 *237:3 0.000157254
3 *237:4 0.000549219
4 *237:5 0.00056009

*RES
1 *638:ZN *237:4 6.98348
2 *237:5 *237:4 8.23042774
3 *237:5 *237:3 8.23042774
4 *237:2 *237:3 6.98348
5 *237:2 *558:D 0.126465
*END

*D_NET *238 0.00148536

*CONN
*I *637:ZN O *C 321.475 148.5475 *L 0 *D INR2D1BWP7T
*I *553:D I *C 324.7625 155.4175 *L 0.0041 *D DFKCNQD1BWP7T

*CAP
1 *553:D 1.75408e-05
2 *238:2 0.00050932
3 *238:3 0.000168188
4 *238:4 6.41012e-05
5 *238:5 0.000395091
6 *238:6 0.000331122

*RES
1 *553:D *238:4 0.126493
2 *238:4 *238:2 8.51989555
3 *238:6 *238:2 1.17822
4 *238:5 *238:6 1.03912
5 *238:3 *238:5 0.194875
6 *637:ZN *238:3 6.98352
*END

*D_NET *239 0.00181352

*CONN
*I *636:ZN O *C 276.675 142.6525 *L 0 *D INR2D1BWP7T
*I *551:D I *C 269.8825 143.6225 *L 0.0041 *D DFKCNQD1BWP7T

*CAP
1 *239:2 0.000110024
2 *239:3 0.000423658
3 *239:4 5.03792e-05
4 *239:5 0.000339007
5 *239:6 0.000400379
6 *239:7 0.00049007

*RES
1 *636:ZN *239:6 6.98348
2 *239:6 *239:4 7.81474
3 *239:4 *239:3 1.874
4 *239:5 *239:3 1.16205
5 *239:5 *239:7 6.98348
6 *239:7 *239:2 8.23042774
7 *239:2 *551:D 0.126465
*END

*D_NET *240 0.000820551

*CONN
*I *635:ZN O *C 267.645 150.4925 *L 0 *D INR2D1BWP7T
*I *552:D I *C 269.3225 155.4175 *L 0.0041 *D DFKCNQD1BWP7T

*CAP
1 *552:D 1.75181e-05
2 *240:2 6.74119e-05
3 *240:3 0.00038577
4 *240:4 0.000201641
5 *240:5 0.00014821

*RES
1 *240:3 *240:4 1.02618
2 *240:4 *240:5 0.623514
3 *240:5 *240:2 7.20426702
4 *552:D *240:2 0.126528
5 *635:ZN *240:3 6.98353
*END

*D_NET *241 0.00080763

*CONN
*I *634:ZN O *C 223.475 164.2275 *L 0 *D INR2D1BWP7T
*I *550:D I *C 224.5225 159.3025 *L 0.0041 *D DFKCNQD1BWP7T

*CAP
1 *241:2 8.08009e-05
2 *241:3 0.00038134
3 *241:4 6.41007e-05
4 *241:5 0.000281389

*RES
1 *241:3 *241:4 0.636466
2 *634:ZN *241:4 6.98345
3 *241:3 *241:5 0.181964
4 *241:5 *241:2 7.61991358
5 *241:2 *550:D 0.126502
*END

*D_NET *242 0.00082195

*CONN
*I *633:ZN O *C 473.725 156.3875 *L 0 *D INR2D1BWP7T
*I *534:D I *C 471.5575 151.4625 *L 0.0041 *D DFKCNQD1BWP7T

*CAP
1 *242:2 0.000170637
2 *242:3 8.90106e-06
3 *242:4 0.000214471
4 *242:5 0.00042301
5 *242:6 4.93141e-06

*RES
1 *242:2 *534:D 0.126493
2 *242:3 *242:2 7.10966635
3 *242:4 *242:3 0.0686709
4 *242:4 *242:5 0.623463
5 *242:5 *242:6 1.05209
6 *633:ZN *242:6 6.9835
*END

*D_NET *243 0.00062738

*CONN
*I *632:ZN O *C 223.965 148.5475 *L 0 *D INR2D1BWP7T
*I *549:D I *C 224.5225 143.6225 *L 0.0041 *D DFKCNQD1BWP7T

*CAP
1 *243:2 8.16222e-05
2 *243:3 0.000180479
3 *243:4 5.70083e-06
4 *243:5 0.00035958

*RES
1 *243:2 *549:D 0.126537
2 *243:5 *243:2 8.03555965
3 *243:3 *243:5 0.181958
4 *243:3 *243:4 0.220826
5 *632:ZN *243:4 6.98354
*END

*D_NET *244 0.00125201

*CONN
*I *631:ZN O *C 236.355 150.4925 *L 0 *D INR2D1BWP7T
*I *548:D I *C 241.3225 155.4175 *L 0.0041 *D DFKCNQD1BWP7T

*CAP
1 *548:D 1.7521e-05
2 *244:2 6.63573e-05
3 *244:3 0.000317563
4 *244:5 0.00042622
5 *244:6 0.000424347

*RES
1 *244:6 *244:4 8.64607334
2 *244:3 *244:4 0.623495
3 *631:ZN *244:3 6.98351
4 *244:5 *244:6 6.98351
5 *244:5 *244:2 7.607
6 *548:D *244:2 0.12652
*END

*D_NET *245 0.00167672

*CONN
*I *630:ZN O *C 726.285 132.8675 *L 0 *D INR2D1BWP7T
*I *582:D I *C 725.2375 143.6225 *L 0.0041 *D DFKCNQD1BWP7T

*CAP
1 *245:2 8.14521e-05
2 *245:3 0.00083838
3 *245:4 0.000706243
4 *245:5 5.06469e-05

*RES
1 *245:3 *245:5 0.181865
2 *245:4 *245:5 1.88338
3 *630:ZN *245:4 6.98355
4 *245:3 *245:2 9.28249931
5 *245:2 *582:D 0.126484
*END

*D_NET *246 0.00193168

*CONN
*I *629:ZN O *C 234.675 140.7075 *L 0 *D INR2D1BWP7T
*I *547:D I *C 225.6425 139.7375 *L 0.0041 *D DFKCNQD1BWP7T

*CAP
1 *547:D 1.13761e-05
2 *246:2 0.000114705
3 *246:3 0.000349281
4 *246:4 0.000371122
5 *246:5 0.0010852

*RES
1 *629:ZN *246:4 6.98354
2 *246:5 *246:4 7.39912
3 *246:5 *246:3 10.3086596
4 *246:3 *246:2 7.39912
5 *547:D *246:2 0.126467
*END

*D_NET *247 0.00140555

*CONN
*I *628:ZN O *C 740.845 142.6525 *L 0 *D INR2D1BWP7T
*I *546:D I *C 739.7975 135.7825 *L 0.0041 *D DFKCNQD1BWP7T

*CAP
1 *247:2 8.34356e-05
2 *247:3 0.00072452
3 *247:4 0.000597592

*RES
1 *247:3 *247:4 0.207769
2 *247:4 *247:5 1.67557
3 *628:ZN *247:5 6.98352
4 *247:3 *247:2 8.21747112
5 *247:2 *546:D 0.126517
*END

*D_NET *248 0.00090106

*CONN
*I *627:ZN O *C 491.085 148.5475 *L 0 *D INR2D1BWP7T
*I *557:D I *C 493.3225 151.4625 *L 0.0041 *D DFKCNQD1BWP7T

*CAP
1 *248:2 8.45208e-05
2 *248:3 0.000169607
3 *248:4 6.22393e-05
4 *248:5 0.000132889
5 *248:6 0.0004518

*RES
1 *627:ZN *248:3 6.98354
2 *248:3 *248:4 0.389786
3 *248:4 *248:5 0.207829
4 *248:5 *248:6 0.415658
5 *248:6 *248:2 8.03555965
6 *248:2 *557:D 0.126537
*END

*D_NET *249 0.002192

*CONN
*I *626:ZN O *C 740.285 148.5475 *L 0 *D INR2D1BWP7T
*I *584:D I *C 724.6775 147.5775 *L 0.0041 *D DFKCNQD1BWP7T

*CAP
1 *584:D 1.75471e-05
2 *249:2 0.00130974
3 *249:3 6.70109e-05
4 *249:4 0.000350463
5 *249:5 0.000194857
6 *249:6 0.000252395

*RES
1 *584:D *249:3 0.126509
2 *249:5 *249:3 7.19124
3 *249:5 *249:6 6.98348
4 *249:6 *249:2 0.917458
5 *249:4 *249:2 11.6773243
6 *626:ZN *249:4 6.98348
*END

*D_NET *250 0.0007945

*CONN
*I *625:ZN O *C 805.245 164.2275 *L 0 *D INR2D1BWP7T
*I *544:D I *C 803.6375 159.3025 *L 0.0041 *D DFKCNQD1BWP7T

*CAP
1 *250:2 8.00512e-05
2 *250:3 0.00039816
3 *250:4 0.000301231
4 *250:5 1.50612e-05

*RES
1 *625:ZN *250:5 6.98349
2 *250:4 *250:5 0.844267
3 *250:3 *250:4 0.415653
4 *250:3 *250:2 7.38617849
5 *250:2 *544:D 0.126454
*END

*D_NET *251 0.00307939

*CONN
*I *624:ZN O *C 804.685 142.6525 *L 0 *D INR2D1BWP7T
*I *543:D I *C 795.2375 131.8975 *L 0.0041 *D DFKCNQD1BWP7T

*CAP
1 *543:D 1.72703e-05
2 *251:2 6.73177e-05
3 *251:3 0.000233667
4 *251:4 0.00169941
5 *251:5 0.00106173

*RES
1 *251:3 *251:2 7.39914
2 *543:D *251:2 0.126494
3 *251:5 *251:3 10.3087
4 *251:5 *251:4 10.7243061
5 *624:ZN *251:4 6.9835
*END

*D_NET *252 0.00212742

*CONN
*I *623:ZN O *C 785.645 134.8125 *L 0 *D INR2D1BWP7T
*I *542:D I *C 798.0375 135.7825 *L 0.0041 *D DFKCNQD1BWP7T

*CAP
1 *252:2 0.000104908
2 *252:3 0.000507886
3 *252:4 0.000173557
4 *252:5 0.00020323
5 *252:6 0.000164317
6 *252:7 0.000245951
7 *252:8 4.01824e-05
8 *252:9 0.00068738

*RES
1 *623:ZN *252:4 6.98354
2 *252:7 *252:4 7.59396
3 *252:6 *252:7 0.441566
4 *252:6 *252:3 0.331373
5 *252:8 *252:3 1.92865
6 *252:8 *252:9 0.207835
7 *252:9 *252:5 8.65902996
8 *252:5 *252:2 7.19137
9 *252:2 *542:D 0.126445
*END

*D_NET *253 0.00161569

*CONN
*I *622:ZN O *C 671.405 156.3875 *L 0 *D INR2D1BWP7T
*I *538:D I *C 667.4825 147.5775 *L 0.0041 *D DFKCNQD1BWP7T

*CAP
1 *538:D 1.13866e-05
2 *253:2 0.000384639
3 *253:3 9.38027e-05
4 *253:4 2.86562e-05
5 *253:5 0.000456769
6 *253:6 0.00049748
7 *253:7 0.000142947

*RES
1 *622:ZN *253:4 6.98349
2 *253:4 *253:2 1.1208
3 *253:7 *253:2 0.334036
4 *253:5 *253:7 6.98349
5 *253:6 *253:5 8.50150108
6 *253:6 *253:3 8.02256
7 *538:D *253:3 0.12648
*END

*D_NET *254 0.00078552

*CONN
*I *621:ZN O *C 782.845 164.2275 *L 0 *D INR2D1BWP7T
*I *540:D I *C 782.8425 159.3025 *L 0.0041 *D DFKCNQD1BWP7T

*CAP
1 *254:2 8.33856e-05
2 *254:3 0.00070213

*RES
1 *254:2 *540:D 0.126465
2 *254:3 *254:2 8.23042774
3 *621:ZN *254:3 6.98348
*END

*D_NET *255 0.002934

*CONN
*I *620:ZN O *C 784.525 148.5475 *L 0 *D INR2D1BWP7T
*I *541:D I *C 799.1575 147.5775 *L 0.0041 *D DFKCNQD1BWP7T

*CAP
1 *541:D 1.14254e-05
2 *255:2 0.00115729
3 *255:3 0.000383256
4 *255:4 9.68073e-05
5 *255:5 0.000601522
6 *255:6 3.68899e-05
7 *255:7 0.000646818

*RES
1 *255:6 *255:7 6.98348
2 *255:7 *255:4 8.23042774
3 *541:D *255:4 0.126465
4 *255:6 *255:2 4.89372
5 *255:3 *255:2 1.68424
6 *255:5 *255:3 8.23042774
7 *620:ZN *255:5 6.98348
*END

*D_NET *256 0.00074093

*CONN
*I *619:ZN O *C 196.525 156.3875 *L 0 *D INR2D1BWP7T
*I *587:D I *C 195.4025 151.4625 *L 0.0041 *D DFKCNQD1BWP7T

*CAP
1 *256:2 0.00025576
2 *256:3 0.000121472
3 *256:4 8.44317e-05
4 *256:5 0.00026051
5 *256:6 1.87586e-05

*RES
1 *256:2 *587:D 0.126493
2 *256:3 *256:2 7.10966635
3 *256:4 *256:3 0.484385
4 *256:4 *256:5 0.207857
5 *256:5 *256:6 0.636372
6 *619:ZN *256:6 6.9835
*END

*D_NET *257 0.00083255

*CONN
*I *618:ZN O *C 658.595 134.8125 *L 0 *D INR2D1BWP7T
*I *537:D I *C 658.5225 131.8975 *L 0.0041 *D DFKCNQD1BWP7T

*CAP
1 *537:D 1.13964e-05
2 *257:2 0.000113219
3 *257:3 0.00070793

*RES
1 *537:D *257:2 0.126465
2 *257:3 *257:2 8.23042774
3 *618:ZN *257:3 6.98348
*END

*D_NET *258 0.00234756

*CONN
*I *617:ZN O *C 766.115 156.3875 *L 0 *D INR2D1BWP7T
*I *539:D I *C 757.0825 151.4625 *L 0.0041 *D DFKCNQD1BWP7T

*CAP
1 *258:2 0.000188052
2 *258:3 0.000187507
3 *258:4 0.000223042
4 *258:5 0.00127604
5 *258:6 0.000472915

*RES
1 *258:2 *539:D 0.126502
2 *258:4 *258:2 7.10962
3 *258:3 *258:4 0.705174
4 *258:5 *258:3 7.09484
5 *258:6 *258:5 10.1973257
6 *258:6 *258:7 0.415605
7 *617:ZN *258:7 6.98343
*END

*D_NET *259 0.00086139

*CONN
*I *616:ZN O *C 750.925 158.3325 *L 0 *D INR2D1BWP7T
*I *545:D I *C 748.7575 155.4175 *L 0.0041 *D DFKCNQD1BWP7T

*CAP
1 *545:D 1.72825e-05
2 *259:2 6.62899e-05
3 *259:3 0.000363702
4 *259:4 0.00040639
5 *259:5 7.73279e-06

*RES
1 *616:ZN *259:5 6.9835
2 *259:4 *259:5 1.05206
3 *259:3 *259:4 0.623462
4 *259:3 *259:2 7.17835569
5 *545:D *259:2 0.126511
*END

*D_NET *260 0.00135007

*CONN
*I *615:ZN O *C 197.715 140.7075 *L 0 *D INR2D1BWP7T
*I *588:D I *C 195.4025 135.7825 *L 0.0041 *D DFKCNQD1BWP7T

*CAP
1 *260:2 0.000110909
2 *260:3 0.00061597
3 *260:4 0.000188856
4 *260:5 0.000434332

*RES
1 *615:ZN *260:4 6.98355
2 *260:4 *260:5 6.98355
3 *260:5 *260:3 7.81481
4 *260:3 *260:2 8.43825054
5 *260:2 *588:D 0.12644
*END

*D_NET *261 0.0009857

*CONN
*I *614:ZN O *C 663.635 166.1725 *L 0 *D INR2D1BWP7T
*I *586:D I *C 665.8025 163.2575 *L 0.0041 *D DFKCNQD1BWP7T

*CAP
1 *586:D 1.65928e-05
2 *261:2 6.65032e-05
3 *261:3 0.000272724
4 *261:4 5.27111e-05
5 *261:5 0.00057718

*RES
1 *614:ZN *261:4 6.98354
2 *261:3 *261:4 0.220826
3 *261:3 *261:5 0.597615
4 *261:5 *261:2 8.03555965
5 *586:D *261:2 0.126537
*END

*D_NET *262 0.00117809

*CONN
*I *613:ZN O *C 184.835 134.8125 *L 0 *D INR2D1BWP7T
*I *590:D I *C 183.6425 143.6225 *L 0.0041 *D DFKCNQD1BWP7T

*CAP
1 *262:2 0.000104727
2 *262:3 0.00051066
3 *262:4 0.000467959
4 *262:5 9.47372e-05

*RES
1 *613:ZN *262:4 6.98354
2 *262:4 *262:5 1.46768
3 *262:3 *262:5 0.389786
4 *262:3 *262:2 8.03555965
5 *262:2 *590:D 0.126537
*END

*D_NET *263 0.00175744

*CONN
*I *612:ZN O *C 690.445 174.0125 *L 0 *D INR2D1BWP7T
*I *585:D I *C 688.8375 163.2575 *L 0.0041 *D DFKCNQD1BWP7T

*CAP
1 *585:D 1.71905e-05
2 *263:2 6.2248e-05
3 *263:3 0.000346579
4 *263:4 0.000591731
5 *263:5 9.77764e-05
6 *263:6 0.00062139
7 *263:7 2.05186e-05

*RES
1 *612:ZN *263:7 6.98346
2 *263:6 *263:7 1.67556
3 *263:5 *263:6 0.20788
4 *263:4 *263:5 1.87046
5 *263:3 *263:4 0.20788
6 *263:3 *263:2 7.59400177
7 *585:D *263:2 0.126536
*END

*D_NET *264 0.00167513

*CONN
*I *611:ZN O *C 715.715 142.6525 *L 0 *D INR2D1BWP7T
*I *581:D I *C 712.9175 135.7825 *L 0.0041 *D DFKCNQD1BWP7T

*CAP
1 *264:2 8.16365e-05
2 *264:3 0.0009813
3 *264:4 0.000525486
4 *264:5 8.67126e-05

*RES
1 *264:3 *264:4 1.03915
2 *264:4 *264:5 1.0521
3 *611:ZN *264:5 6.98347
4 *264:3 *264:2 8.84094143
5 *264:2 *581:D 0.126538
*END

*D_NET *265 0.0007632

*CONN
*I *610:ZN O *C 183.085 150.4925 *L 0 *D INR2D1BWP7T
*I *589:D I *C 184.2025 155.4175 *L 0.0041 *D DFKCNQD1BWP7T

*CAP
1 *589:D 1.75207e-05
2 *265:2 6.7471e-05
3 *265:3 0.000170439
4 *265:4 0.000134851
5 *265:5 0.00037292

*RES
1 *265:3 *265:4 0.402638
2 *265:4 *265:5 0.415657
3 *265:5 *265:2 7.82773685
4 *589:D *265:2 0.126489
5 *610:ZN *265:3 6.98352
*END

*D_NET *266 0.00274205

*CONN
*I *609:ZN O *C 738.115 166.1725 *L 0 *D INR2D1BWP7T
*I *583:D I *C 723.5575 163.2575 *L 0.0041 *D DFKCNQD1BWP7T

*CAP
1 *583:D 1.75169e-05
2 *266:2 0.00098201
3 *266:3 6.60068e-05
4 *266:4 0.000611383
5 *266:5 0.000211237
6 *266:7 9.54064e-05
7 *266:8 0.000237564
8 *266:9 0.000276689
9 *266:10 0.000244218

*RES
1 *266:8 *266:2 0.696577
2 *266:7 *266:2 3.43394
3 *266:7 *266:9 0.415668
4 *266:9 *266:4 7.61991358
5 *266:4 *266:6 1.24689
6 *609:ZN *266:6 6.98345
7 *266:8 *266:10 0.441596
8 *266:10 *266:5 7.59398508
9 *266:3 *266:5 6.98345
10 *583:D *266:3 0.126502
*END

*D_NET *267 0.00166135

*CONN
*I *608:ZN O *C 248.675 150.4925 *L 0 *D INR2D1BWP7T
*I *592:D I *C 244.1975 159.3025 *L 0.0041 *D DFKCNQD1BWP7T

*CAP
1 *267:2 8.05178e-05
2 *267:3 0.000515008
3 *267:4 0.000466941
4 *267:5 0.00059888

*RES
1 *267:3 *267:2 8.23037
2 *267:2 *592:D 0.12652
3 *267:5 *267:3 8.64607334
4 *267:5 *267:4 8.23037
5 *608:ZN *267:4 6.98351
*END

*D_NET *268 0.00077625

*CONN
*I *607:ZN O *C 433.405 132.8675 *L 0 *D INR2D1BWP7T
*I *532:D I *C 432.9175 135.7825 *L 0.0041 *D DFKCNQD1BWP7T

*CAP
1 *268:2 8.08556e-05
2 *268:3 0.00069539

*RES
1 *268:2 *532:D 0.126465
2 *268:3 *268:2 8.23042774
3 *607:ZN *268:3 6.98348
*END

*D_NET *269 0.00193504

*CONN
*I *606:ZN O *C 614.845 132.8675 *L 0 *D INR2D1BWP7T
*I *578:D I *C 610.3625 139.7375 *L 0.0041 *D DFKCNQD1BWP7T

*CAP
1 *578:D 1.11593e-05
2 *269:2 0.000118351
3 *269:3 0.000699585
4 *269:4 0.00102283
5 *269:5 8.31093e-05

*RES
1 *269:3 *269:5 1.42885
2 *269:4 *269:5 2.29902
3 *606:ZN *269:4 6.98345
4 *269:3 *269:2 7.61991358
5 *578:D *269:2 0.126502
*END

*D_NET *270 0.0015384

*CONN
*I *605:ZN O *C 407.4 150.64 *L 0 *D NR2XD0BWP7T
*I *531:D I *C 414.9225 155.4175 *L 0.0041 *D DFKCNQD1BWP7T

*CAP
1 *605:ZN 0.00024521
2 *531:D 1.75669e-05
3 *270:2 4.29542e-05
4 *270:3 6.7159e-05
5 *270:4 0.000159598
6 *270:5 0.000418837
7 *270:6 0.00058707

*RES
1 *270:6 *270:4 8.64607334
2 *270:4 *270:2 7.1913
3 *605:ZN *270:2 1.01202
4 *270:5 *270:6 6.98351
5 *270:5 *270:3 8.02258
6 *531:D *270:3 0.12652
*END

*D_NET *271 0.00069428

*CONN
*I *604:ZN O *C 599.235 158.3325 *L 0 *D INR2D1BWP7T
*I *536:D I *C 598.6775 155.4175 *L 0.0041 *D DFKCNQD1BWP7T

*CAP
1 *536:D 1.72303e-05
2 *271:2 6.6392e-05
3 *271:3 0.000248741
4 *271:4 0.00036192

*RES
1 *271:4 *271:5 0.844267
2 *604:ZN *271:5 6.98349
3 *271:3 *271:4 0.207826
4 *271:3 *271:2 7.38617849
5 *536:D *271:2 0.126454
*END

*D_NET *272 0.00176645

*CONN
*I *603:ZN O *C 607.005 158.3325 *L 0 *D INR2D1BWP7T
*I *577:D I *C 609.8025 151.4625 *L 0.0041 *D DFKCNQD1BWP7T

*CAP
1 *272:2 0.000174299
2 *272:3 0.000366238
3 *272:4 0.000502724
4 *272:5 0.000138458
5 *272:6 0.00058473

*RES
1 *272:3 *272:5 1.26502
2 *272:5 *272:4 8.72771835
3 *272:4 *272:2 7.10965
4 *272:2 *577:D 0.126516
5 *272:6 *272:3 8.02256
6 *603:ZN *272:6 6.98353
*END

*D_NET *273 0.00084242

*CONN
*I *602:ZN O *C 572.285 132.8675 *L 0 *D INR2D1BWP7T
*I *576:D I *C 572.3575 135.7825 *L 0.0041 *D DFKCNQD1BWP7T

*CAP
1 *273:2 0.000108135
2 *273:3 0.00073429

*RES
1 *602:ZN *273:3 6.98348
2 *273:3 *273:2 8.23042774
3 *273:2 *576:D 0.126465
*END

*D_NET *274 0.00083435

*CONN
*I *601:ZN O *C 572.285 140.7075 *L 0 *D INR2D1BWP7T
*I *575:D I *C 572.9175 143.6225 *L 0.0041 *D DFKCNQD1BWP7T

*CAP
1 *274:2 0.000124948
2 *274:3 0.000155951
3 *274:4 9.39883e-05
4 *274:5 0.00045946

*RES
1 *274:3 *274:4 0.194832
2 *274:4 *274:5 0.207829
3 *274:5 *274:2 8.03555965
4 *274:2 *575:D 0.126537
5 *601:ZN *274:3 6.98354
*END

*D_NET *275 0.00107445

*CONN
*I *600:ZN O *C 417.235 132.8675 *L 0 *D INR2D1BWP7T
*I *574:D I *C 417.7225 139.7375 *L 0.0041 *D DFKCNQD1BWP7T

*CAP
1 *574:D 1.75135e-05
2 *275:2 6.32154e-05
3 *275:3 0.00099372

*RES
1 *574:D *275:2 0.126501
2 *275:3 *275:2 9.893013
3 *600:ZN *275:3 6.9835
*END

*D_NET *276 0.00189009

*CONN
*I *599:ZN O *C 348.285 148.5475 *L 0 *D INR2D1BWP7T
*I *594:D I *C 353.8825 143.6225 *L 0.0041 *D DFKCNQD1BWP7T

*CAP
1 *276:2 8.4756e-05
2 *276:3 0.000413
3 *276:5 0.000366953
4 *276:6 0.00102538

*RES
1 *276:5 *276:6 6.98351
2 *276:6 *276:3 9.06171989
3 *276:3 *276:4 0.831284
4 *599:ZN *276:4 6.98351
5 *276:5 *276:2 7.39915
6 *276:2 *594:D 0.126518
*END

*D_NET *277 0.00180406

*CONN
*I *598:ZN O *C 239.085 142.6525 *L 0 *D INR2D1BWP7T
*I *591:D I *C 236.3575 131.8975 *L 0.0041 *D DFKCNQD1BWP7T

*CAP
1 *591:D 1.72273e-05
2 *277:2 6.40165e-05
3 *277:3 0.00084379
4 *277:4 0.000507343
5 *277:5 0.000219654
6 *277:6 0.000147411
7 *277:7 4.6094e-06

*RES
1 *277:6 *277:7 0.220765
2 *598:ZN *277:7 6.98354
3 *277:5 *277:6 0.623452
4 *277:4 *277:5 1.66259
5 *277:3 *277:4 0.20777
6 *277:3 *277:2 9.25658798
7 *591:D *277:2 0.126555
*END

*D_NET *278 0.00120093

*CONN
*I *597:ZN O *C 412.195 150.4925 *L 0 *D INR2D1BWP7T
*I *573:D I *C 413.8025 159.3025 *L 0.0041 *D DFKCNQD1BWP7T

*CAP
1 *278:2 8.09894e-05
2 *278:3 0.000119285
3 *278:4 0.000147886
4 *278:5 0.00085277

*RES
1 *278:4 *278:5 0.415713
2 *278:5 *278:2 9.28249931
3 *278:2 *573:D 0.126484
4 *278:3 *278:4 0.194896
5 *597:ZN *278:3 6.98355
*END

*D_NET *279 0.00125845

*CONN
*I *596:ZN O *C 383.635 150.4925 *L 0 *D INR2D1BWP7T
*I *572:D I *C 380.8375 159.3025 *L 0.0041 *D DFKCNQD1BWP7T

*CAP
1 *279:2 7.99144e-05
2 *279:3 0.000388138
3 *279:4 0.0007904

*RES
1 *279:3 *279:2 7.20426702
2 *279:2 *572:D 0.126528
3 *279:3 *279:5 1.01321
4 *279:4 *279:5 2.29904
5 *596:ZN *279:4 6.98353
*END

*D_NET *280 0.00203083

*CONN
*I *595:ZN O *C 585.165 150.4925 *L 0 *D INR2D1BWP7T
*I *535:D I *C 577.8825 147.5775 *L 0.0041 *D DFKCNQD1BWP7T

*CAP
1 *535:D 1.11749e-05
2 *280:2 0.000120728
3 *280:3 0.00018758
4 *280:4 0.000532057
5 *280:5 0.0011793

*RES
1 *595:ZN *280:4 6.98351
2 *280:5 *280:4 8.23037
3 *280:5 *280:3 9.47736645
4 *280:2 *280:3 6.98351
5 *535:D *280:2 0.126536
*END

*D_NET *281 0.00867178

*CONN
*I *530:ZN O *C 614.6 158.48 *L 0 *D IND2D0BWP7T
*I *528:A1 I *C 615.16 155.68 *L 0.00252 *D OR2D0BWP7T
*I *524:A2 I *C 673.68 143.6225 *L 0.00394 *D OR2D1BWP7T

*CAP
1 *281:3 4.70625e-05
2 *281:5 5.48242e-05
3 *281:6 0.00179108
4 *281:7 3.66224e-06
5 *281:8 0.00175514
6 *281:9 0.000127304
7 *281:10 1.27905e-05
8 *281:11 0.000957238
9 *281:13 0.000302927
10 *281:14 0.000377019
11 *281:16 1.80379e-05
12 *281:17 0.000123696
13 *281:18 2.38319e-05
14 *281:19 9.42889e-06
15 *281:20 9.70766e-05
16 *281:3 *7:67 0.00137025
17 *281:4 *40:23 0.00160037

*RES
1 *281:18 *281:20 0.207907
2 *281:20 *281:12 7.61986
3 *281:9 *281:12 0.220859
4 *281:9 *281:15 0.182004
5 *281:15 *281:10 1.7571
6 *281:10 *281:11 10.0191
7 *281:11 *524:A2 0.126562
8 *281:14 *281:18 1.63667
9 *281:14 *281:3 0.23381
10 *281:3 *281:5 0.159282
11 *281:6 *281:5 10.232
12 *281:7 *281:6 0.207907
13 *281:7 *281:4 1.01568
14 *281:8 *281:4 14.891161
15 *281:17 *281:8 0.207907
16 *528:A1 *281:17 6.98341
17 *281:8 *281:19 0.220859
18 *281:13 *281:19 0.182004
19 *281:13 *281:16 0.636446
20 *530:ZN *281:16 6.98341
*END

*D_NET *282 0.00404737

*CONN
*I *526:Z O *C 809.48 133.28 *L 0 *D CKXOR2D1BWP7T
*I *525:A1 I *C 774.2 132.16 *L 0.00283 *D CKAN2D1BWP7T

*CAP
1 *525:A1 0.00136745
2 *282:2 6.09494e-05
3 *282:3 0.00039566
4 *282:4 0.000191654
5 *282:5 3.75587e-05
6 *282:6 0.000176526
7 *282:7 0.000499844
8 *282:8 0.00108315
9 *282:9 4.77413e-05
10 *282:10 0.000186834

*RES
1 *282:10 *282:6 7.61993
2 *526:Z *282:6 6.98341
3 *282:9 *282:10 0.207816
4 *282:7 *282:9 1.63672
5 *282:7 *282:8 0.233793
6 *282:8 *282:5 11.126997
7 *282:4 *282:5 0.181839
8 *282:4 *282:2 7.2043
9 *282:2 *282:3 1.6048
10 *525:A1 *282:3 6.23839
*END

*D_NET *283 0.00186195

*CONN
*I *528:Z O *C 612.92 156.24 *L 0 *D OR2D0BWP7T
*I *432:E I *C 606.76 147.28 *L 0.00395 *D CKLNQD4BWP7T

*CAP
1 *283:2 0.00076686
2 *283:3 0.000164547
3 *283:4 0.000292796
4 *283:5 0.000338596
5 *283:6 0.000299138

*RES
1 *432:E *283:4 6.98345
2 *283:4 *283:5 0.623443
3 *283:5 *283:3 0.957489
4 *283:6 *283:3 0.49729
5 *283:6 *283:2 7.61991358
6 *283:2 *528:Z 2.78305
*END

*D_NET *284 0.00866248

*CONN
*I *524:Z O *C 675.08 142.24 *L 0 *D OR2D1BWP7T
*I *431:E I *C 728.28 139.44 *L 0.00395 *D CKLNQD6BWP7T

*CAP
1 *524:Z 0.000272056
2 *284:2 0.00219274
3 *284:3 9.847e-05
4 *284:4 0.000275937
5 *284:5 0.000169203
6 *284:6 0.00154956
7 *284:7 4.75453e-05
8 *284:8 0.000134305
9 *284:9 0.000372299
10 *284:10 7.61863e-05
11 *284:11 0.000629432
12 *284:12 0.000336565
13 *284:13 0.000379392
14 *284:14 9.80351e-06
15 *284:15 0.000261315
16 *284:5 *7:84 0.00093007
17 *284:2 *111:26 0.0004196
18 *284:2 *112:13 0.000508

*RES
1 *284:13 *284:7 7.61996603
2 *524:Z *284:7 1.01205
3 *284:11 *284:13 1.45479
4 *284:9 *284:11 0.623427
5 *284:15 *284:9 7.59398985
6 *284:6 *284:15 0.233785
7 *284:6 *284:5 6.69826
8 *284:8 *284:5 2.83575
9 *284:2 *284:8 0.233785
10 *284:2 *284:3 8.38607025
11 *284:4 *284:3 7.10518
12 *284:4 *284:10 0.818312
13 *284:10 *284:12 0.207809
14 *284:12 *284:14 1.0521
15 *431:E *284:14 6.98349
*END

*D_NET *285 0.00073117

*CONN
*I *707:Z O *C 152.04 148.4 *L 0 *D OA21D0BWP7T
*I *651:A1 I *C 154.28 151.76 *L 0.00303 *D INR2D1BWP7T

*CAP
1 *707:Z 0.000139511
2 *285:2 0.000140921
3 *285:3 6.58084e-05
4 *285:4 0.00038493

*RES
1 *285:2 *651:A1 0.506066
2 *285:3 *285:2 7.06515
3 *285:4 *285:3 8.14878273
4 *707:Z *285:4 0.506066
*END

*D_NET *286 0.00086792

*CONN
*I *699:S O *C 164.36 148.4 *L 0 *D HA1D0BWP7T
*I *652:A1 I *C 166.6 151.76 *L 0.00303 *D INR2D1BWP7T

*CAP
1 *699:S 0.000301067
2 *652:A1 5.90208e-05
3 *286:2 6.81675e-05
4 *286:3 0.00040203
5 *286:4 3.76295e-05

*RES
1 *699:S *286:3 1.26504
2 *286:3 *286:2 8.14878273
3 *286:4 *286:2 7.06515
4 *652:A1 *286:4 0.253033
*END

*D_NET *287 0.00072795

*CONN
*I *695:Z O *C 167.72 141.12 *L 0 *D CKXOR2D1BWP7T
*I *653:A1 I *C 168.28 136.08 *L 0.00303 *D INR2D1BWP7T

*CAP
1 *695:Z 0.000114297
2 *653:A1 5.99966e-05
3 *287:2 3.93803e-05
4 *287:3 3.44825e-05
5 *287:4 0.00047979

*RES
1 *287:4 *287:2 8.23042774
2 *653:A1 *287:2 0.253057
3 *287:3 *287:4 6.98348
4 *695:Z *287:3 0.505987
*END

*D_NET *288 0.00057498

*CONN
*I *696:S O *C 204.68 140.56 *L 0 *D HA1D0BWP7T
*I *654:A1 I *C 204.68 143.92 *L 0.00303 *D INR2D1BWP7T

*CAP
1 *288:3 0.00057498

*RES
1 *288:3 *288:2 1.24696
2 *654:A1 *288:2 6.98348808
3 *696:S *288:3 6.98348808
*END

*D_NET *289 0.0009108

*CONN
*I *691:Z O *C 215.88 142.24 *L 0 *D CKXOR2D1BWP7T
*I *655:A1 I *C 216.44 147.28 *L 0.00303 *D INR2D1BWP7T

*CAP
1 *691:Z 5.81373e-05
2 *289:2 6.57856e-05
3 *289:3 0.00078687

*RES
1 *655:A1 *289:3 6.98348
2 *289:3 *289:2 8.23042774
3 *691:Z *289:2 0.253057
*END

*D_NET *290 0.00060252

*CONN
*I *692:S O *C 277.48 148.4 *L 0 *D HA1D0BWP7T
*I *656:A1 I *C 276.92 151.76 *L 0.00303 *D INR2D1BWP7T

*CAP
1 *290:2 0.00010251
2 *290:3 3.02889e-06
3 *290:4 8.29968e-06
4 *290:5 0.000209891
5 *290:6 0.00027879

*RES
1 *290:5 *290:4 0.428583
2 *290:6 *290:4 0.181897
3 *290:6 *290:2 0.762647
4 *290:3 *290:2 0.0816246
5 *656:A1 *290:3 6.98348808
6 *692:S *290:5 6.98348808
*END

*D_NET *291 0.00152067

*CONN
*I *687:Z O *C 293.72 148.96 *L 0 *D CKXOR2D1BWP7T
*I *657:A1 I *C 299.88 155.12 *L 0.00303 *D INR2D1BWP7T

*CAP
1 *687:Z 0.00060951
2 *291:2 8.78156e-05
3 *291:3 0.000406349
4 *291:4 0.000416989

*RES
1 *687:Z *291:4 2.53005
2 *291:4 *291:3 8.14884
3 *291:3 *291:2 8.3120718
4 *291:2 *657:A1 0.25303
*END

*D_NET *292 0.00318983

*CONN
*I *688:S O *C 378.28 142.8 *L 0 *D HA1D0BWP7T
*I *658:A1 I *C 358.68 151.76 *L 0.00303 *D INR2D1BWP7T

*CAP
1 *658:A1 0.000510711
2 *292:2 0.000679048
3 *292:3 3.69759e-05
4 *292:4 7.45714e-05
5 *292:5 0.00081207
6 *292:6 0.000317814
7 *292:7 0.000245635
8 *292:8 0.000513004

*RES
1 *658:A1 *292:5 2.26617
2 *292:3 *292:5 3.55285
3 *292:4 *292:3 7.06515
4 *292:7 *292:4 0.554811
5 *292:7 *292:9 0.181924
6 *292:8 *292:9 1.68853
7 *292:6 *292:8 0.20788
8 *292:6 *292:2 7.59400177
9 *292:2 *688:S 3.03605
*END

*D_NET *293 0.000725847

*CONN
*I *678:S O *C 383.32 148.4 *L 0 *D HA1D0BWP7T
*I *596:A1 I *C 382.2 151.76 *L 0.00303 *D INR2D1BWP7T

*CAP
1 *293:2 0.00056456
2 *293:3 8.75075e-05
3 *293:4 7.37757e-05

*RES
1 *293:4 *293:3 7.06515
2 *293:3 *596:A1 0.253033
3 *293:4 *293:2 8.14878273
4 *293:2 *678:S 0.758975
*END

*D_NET *294 0.00053123

*CONN
*I *667:S O *C 410.76 148.4 *L 0 *D HA1D0BWP7T
*I *597:A1 I *C 410.76 151.76 *L 0.00303 *D INR2D1BWP7T

*CAP
1 *294:2 0.0001056
2 *294:3 1.39824e-06
3 *294:4 0.00042423

*RES
1 *667:S *294:4 6.98348808
2 *294:4 *294:2 1.16534
3 *294:3 *294:2 0.0816246
4 *597:A1 *294:3 6.98348808
*END

*D_NET *295 0.00065054

*CONN
*I *663:Z O *C 414.68 134.4 *L 0 *D CKXOR2D1BWP7T
*I *600:A1 I *C 415.8 131.6 *L 0.00303 *D INR2D1BWP7T

*CAP
1 *295:2 0.000144298
2 *295:3 0.00050624

*RES
1 *295:2 *600:A1 0.505987
2 *295:3 *295:2 8.23042774
3 *663:Z *295:3 6.98348
*END

*D_NET *296 0.0003468

*CONN
*I *684:S O *C 576.52 140.56 *L 0 *D HA1D0BWP7T
*I *601:A1 I *C 573.72 139.44 *L 0.00303 *D INR2D1BWP7T

*CAP
1 *601:A1 0.00024526
2 *296:2 0.00010154

*RES
1 *601:A1 *296:2 0.963215411
2 *684:S *296:2 0.301798
*END

*D_NET *297 0.00048204

*CONN
*I *680:Z O *C 577.64 133.28 *L 0 *D CKXOR2D1BWP7T
*I *602:A1 I *C 573.72 131.6 *L 0.00303 *D INR2D1BWP7T

*CAP
1 *602:A1 0.00026048
2 *297:2 0.00022156

*RES
1 *680:Z *297:2 0.807804
2 *602:A1 *297:2 0.963215411
*END

*D_NET *298 0.00243554

*CONN
*I *682:S O *C 607.88 142.8 *L 0 *D HA1D0BWP7T
*I *603:A1 I *C 608.44 159.6 *L 0.00303 *D INR2D1BWP7T

*CAP
1 *682:S 5.94517e-05
2 *298:2 0.00112541
3 *298:3 4.06477e-05
4 *298:5 0.000251236
5 *298:6 0.000222987
6 *298:7 0.000729598
7 *298:8 6.2165e-06

*RES
1 *603:A1 *298:4 6.98346
2 *298:4 *298:2 2.9912
3 *298:6 *298:2 0.528855
4 *298:6 *298:8 0.10394
5 *298:7 *298:8 1.68853
6 *298:5 *298:7 0.10394
7 *298:5 *298:3 7.59400177
8 *682:S *298:3 0.252956
*END

*D_NET *299 0.0007745

*CONN
*I *676:Z O *C 615.16 134.4 *L 0 *D CKXOR2D1BWP7T
*I *606:A1 I *C 616.28 131.6 *L 0.00303 *D INR2D1BWP7T

*CAP
1 *676:Z 0.000144809
2 *299:2 4.38058e-05
3 *299:3 0.00058588

*RES
1 *676:Z *299:2 0.505987
2 *299:3 *299:2 8.23042774
3 *606:A1 *299:3 6.98348
*END

*D_NET *300 0.00618804

*CONN
*I *681:S O *C 697.48 148.4 *L 0 *D HA1D0BWP7T
*I *648:A1 I *C 718.76 170.8 *L 0.00303 *D INR2D1BWP7T

*CAP
1 *300:2 0.00101328
2 *300:3 0.00163846
3 *300:4 0.000213661
4 *300:6 0.00039187
5 *300:7 0.000335267
6 *300:8 8.01792e-05
7 *300:10 0.000101105
8 *300:11 0.000344718
9 *300:12 0.000355068
10 *300:13 0.000652584
11 *300:14 6.50034e-07
12 *300:2 *7:33 0.00025677
13 *300:3 *114:4 0.00060547
14 *300:12 *135:3 0.00019896

*RES
1 *681:S *300:4 6.98352
2 *300:4 *300:5 0.207769
3 *300:11 *300:5 7.59404
4 *300:11 *300:12 0.207769
5 *300:12 *300:14 1.66253
6 *300:13 *300:14 0.233724
7 *300:13 *300:7 8.21747112
8 *300:7 *300:8 0.610517
9 *300:8 *300:10 0.207769
10 *300:10 *300:3 0.34695
11 *300:9 *300:3 6.53714
12 *300:6 *300:9 0.181939
13 *300:6 *300:2 7.61987
14 *300:2 *648:A1 5.31309
*END

*D_NET *301 0.00092876

*CONN
*I *670:S O *C 710.92 150.64 *L 0 *D HA1D0BWP7T
*I *639:A1 I *C 714.28 155.12 *L 0.00303 *D INR2D1BWP7T

*CAP
1 *301:2 0.000196011
2 *301:3 0.00024481
3 *301:4 0.000211839
4 *301:5 0.0002761

*RES
1 *670:S *301:3 6.98345
2 *301:3 *301:4 0.610537
3 *301:4 *301:5 0.623443
4 *301:5 *301:2 7.61991358
5 *301:2 *639:A1 0.759015
*END

*D_NET *302 0.00066831

*CONN
*I *661:S O *C 713.16 148.4 *L 0 *D HA1D0BWP7T
*I *611:A1 I *C 714.28 143.92 *L 0.00303 *D INR2D1BWP7T

*CAP
1 *302:2 0.000145784
2 *302:3 0.00052253

*RES
1 *302:3 *302:2 8.23042774
2 *302:2 *611:A1 0.505987
3 *661:S *302:3 6.98348
*END

*D_NET *303 0.00074716

*CONN
*I *659:Z O *C 729.4 134.4 *L 0 *D CKXOR2D1BWP7T
*I *630:A1 I *C 727.72 131.6 *L 0.00303 *D INR2D1BWP7T

*CAP
1 *630:A1 0.00011387
2 *303:2 3.57486e-05
3 *303:3 0.000279761
4 *303:4 0.00030505
5 *303:5 1.27308e-05

*RES
1 *303:3 *303:4 0.20788
2 *303:4 *303:5 0.636387
3 *659:Z *303:5 6.98346
4 *303:3 *303:2 7.59400177
5 *630:A1 *303:2 0.506027
*END

*D_NET *304 0.00250306

*CONN
*I *677:S O *C 731.64 156.24 *L 0 *D HA1D0BWP7T
*I *609:A1 I *C 736.68 167.44 *L 0.00303 *D INR2D1BWP7T

*CAP
1 *677:S 0.000184932
2 *304:2 4.85132e-05
3 *304:3 0.000432156
4 *304:4 0.00097825
5 *304:5 8.00244e-05
6 *304:6 0.000385941
7 *304:7 0.000393255

*RES
1 *304:4 *304:6 0.181964
2 *304:6 *304:2 7.61991358
3 *677:S *304:2 0.759015
4 *304:4 *304:5 2.90956
5 *304:5 *304:7 0.207776
6 *304:7 *304:3 7.61991358
7 *304:3 *609:A1 1.51803
*END

*D_NET *305 0.00053434

*CONN
*I *672:Z O *C 741.72 150.08 *L 0 *D CKXOR2D1BWP7T
*I *626:A1 I *C 741.72 147.28 *L 0.00303 *D INR2D1BWP7T

*CAP
1 *305:3 0.00053434

*RES
1 *305:3 *305:2 1.24696
2 *672:Z *305:2 6.98348808
3 *626:A1 *305:3 6.98348808
*END

*D_NET *306 0.00081902

*CONN
*I *674:S O *C 694.68 171.92 *L 0 *D HA1D0BWP7T
*I *612:A1 I *C 691.88 175.28 *L 0.00303 *D INR2D1BWP7T

*CAP
1 *612:A1 0.000225249
2 *306:2 3.18096e-05
3 *306:3 0.000252622
4 *306:4 0.00030934

*RES
1 *306:4 *306:5 0.636466
2 *306:3 *306:5 0.181964
3 *306:3 *306:2 7.61991358
4 *612:A1 *306:2 1.01202
5 *674:S *306:4 6.98345
*END

*D_NET *307 0.00044075

*CONN
*I *669:Z O *C 662.2 172.48 *L 0 *D CKXOR2D1BWP7T
*I *614:A1 I *C 662.2 167.44 *L 0.00303 *D INR2D1BWP7T

*CAP
1 *307:3 0.00044075

*RES
1 *307:3 *307:2 1.03917
2 *669:Z *307:2 6.98348808
3 *614:A1 *307:3 6.98348808
*END

*D_NET *308 0.00116477

*CONN
*I *673:S O *C 198.52 148.4 *L 0 *D HA1D0BWP7T
*I *619:A1 I *C 197.96 155.12 *L 0.00303 *D INR2D1BWP7T

*CAP
1 *619:A1 5.90166e-05
2 *308:2 0.000427071
3 *308:3 0.00064087
4 *308:4 3.78058e-05

*RES
1 *673:S *308:3 6.98351
2 *308:3 *308:2 1.16533
3 *308:4 *308:2 8.3120718
4 *619:A1 *308:4 0.25303
*END

*D_NET *309 6.76e-06

*CONN
*I *668:Z O *C 194.04 141.12 *L 0 *D CKXOR2D1BWP7T
*I *615:A1 I *C 196.28 139.44 *L 0.00303 *D INR2D1BWP7T

*CAP
1 *668:Z 6.76e-06

*RES
1 *668:Z *615:A1 1.01201
*END

*D_NET *310 0.00122563

*CONN
*I *671:S O *C 186.2 148.4 *L 0 *D HA1D0BWP7T
*I *610:A1 I *C 184.52 151.76 *L 0.00303 *D INR2D1BWP7T

*CAP
1 *671:S 0.000139782
2 *610:A1 0.000325617
3 *310:2 8.9332e-05
4 *310:3 0.00061431
5 *310:4 5.65894e-05

*RES
1 *610:A1 *310:4 1.26504
2 *310:4 *310:2 7.06515
3 *310:3 *310:2 8.14878273
4 *671:S *310:3 0.506066
*END

*D_NET *311 0.00010654

*CONN
*I *665:Z O *C 181.16 134.4 *L 0 *D CKXOR2D1BWP7T
*I *613:A1 I *C 183.4 136.08 *L 0.00303 *D INR2D1BWP7T

*CAP
1 *665:Z 9.196e-05
2 *311:2 1.45795e-05

*RES
1 *665:Z *311:2 0.310831
2 *613:A1 *311:2 0.701177418
*END

*D_NET *312 0.00098476

*CONN
*I *666:S O *C 245.56 140.56 *L 0 *D HA1D0BWP7T
*I *598:A1 I *C 240.52 143.92 *L 0.00303 *D INR2D1BWP7T

*CAP
1 *598:A1 0.000245991
2 *312:2 0.000275691
3 *312:3 3.19889e-05
4 *312:4 0.00043109

*RES
1 *666:S *312:4 6.98348
2 *312:4 *312:3 8.23042774
3 *312:3 *312:2 1.39878
4 *598:A1 *312:2 0.878225
*END

*D_NET *313 0.0009835

*CONN
*I *662:Z O *C 247.24 142.24 *L 0 *D CKXOR2D1BWP7T
*I *608:A1 I *C 247.24 151.76 *L 0.00303 *D INR2D1BWP7T

*CAP
1 *313:2 8.98617e-05
2 *313:3 0.00089364

*RES
1 *313:2 *608:A1 0.126536
2 *313:3 *313:2 9.47736645
3 *662:Z *313:3 6.98351
*END

*D_NET *314 0.000656709

*CONN
*I *664:S O *C 304.92 140.56 *L 0 *D HA1D1BWP7T
*I *644:A1 I *C 303.8 143.92 *L 0.00303 *D INR2D1BWP7T

*CAP
1 *314:2 0.000164559
2 *314:3 8.87397e-05
3 *314:4 0.00040341

*RES
1 *314:2 *664:S 0.506065
2 *314:4 *314:2 8.02260399
3 *314:3 *314:4 6.98354
4 *314:3 *644:A1 0.126455
*END

*D_NET *315 0.00178354

*CONN
*I *660:Z O *C 347.48 134.4 *L 0 *D XOR2D1BWP7T
*I *599:A1 I *C 349.72 147.28 *L 0.00303 *D INR2D1BWP7T

*CAP
1 *315:2 0.00010014
2 *315:3 0.000710464
3 *315:4 0.00097124
4 *315:5 1.70432e-06

*RES
1 *315:4 *315:5 2.92247
2 *599:A1 *315:5 6.98351
3 *315:3 *315:4 1.03909
4 *315:3 *315:2 8.00964832
5 *315:2 *660:Z 0.25299
*END

*D_NET *316 0.00254813

*CONN
*I *762:Z O *C 449.96 140.56 *L 0 *D OA21D0BWP7T
*I *607:A1 I *C 434.84 131.6 *L 0.00303 *D INR2D1BWP7T

*CAP
1 *607:A1 0.00157318
2 *316:2 7.06713e-05
3 *316:3 7.54003e-05
4 *316:4 0.000828875

*RES
1 *762:Z *316:4 6.98351
2 *316:4 *316:3 9.47736645
3 *316:2 *316:3 0.265944
4 *607:A1 *316:2 6.81808
*END

*D_NET *317 0.00100238

*CONN
*I *754:S O *C 460.04 142.8 *L 0 *D HA1D0BWP7T
*I *645:A1 I *C 460.04 151.76 *L 0.00303 *D INR2D1BWP7T

*CAP
1 *317:2 0.000109594
2 *317:3 2.04065e-05
3 *317:4 0.00087237

*RES
1 *754:S *317:4 6.98348808
2 *317:4 *317:2 2.82788
3 *317:3 *317:2 0.0816246
4 *645:A1 *317:3 6.98348808
*END

*D_NET *318 0.00118487

*CONN
*I *751:Z O *C 477.4 148.96 *L 0 *D CKXOR2D1BWP7T
*I *633:A1 I *C 475.16 155.12 *L 0.00303 *D INR2D1BWP7T

*CAP
1 *633:A1 0.00016404
2 *318:2 0.000255392
3 *318:3 0.00040514
4 *318:4 3.40816e-05
5 *318:5 0.00031903
6 *318:6 7.18971e-06

*RES
1 *751:Z *318:3 6.98345
2 *318:3 *318:2 1.16526
3 *318:6 *318:2 0.718088
4 *318:5 *318:6 0.181964
5 *318:5 *318:4 7.61991358
6 *633:A1 *318:4 0.759015
*END

*D_NET *319 0.0012948

*CONN
*I *752:S O *C 592.76 156.24 *L 0 *D HA1D0BWP7T
*I *595:A1 I *C 586.6 151.76 *L 0.00303 *D INR2D1BWP7T

*CAP
1 *595:A1 0.00064415
2 *319:2 7.53695e-05
3 *319:3 8.72627e-05
4 *319:4 0.000488025

*RES
1 *319:4 *319:3 8.02260399
2 *319:2 *319:3 0.266008
3 *595:A1 *319:2 2.77001
4 *752:S *319:4 6.98354
*END

*D_NET *320 6.72e-06

*CONN
*I *747:Z O *C 592.2 157.92 *L 0 *D CKXOR2D1BWP7T
*I *604:A1 I *C 597.8 159.6 *L 0.00303 *D INR2D1BWP7T

*CAP
1 *747:Z 6.72e-06

*RES
1 *747:Z *604:A1 2.53002
*END

*D_NET *321 0.00218485

*CONN
*I *748:S O *C 651.56 148.4 *L 0 *D HA1D0BWP7T
*I *618:A1 I *C 657.16 136.08 *L 0.00303 *D INR2D1BWP7T

*CAP
1 *321:2 0.000576106
2 *321:3 0.00129201
3 *321:4 2.81922e-05
4 *321:5 0.000288546

*RES
1 *321:3 *321:4 3.54591
2 *748:S *321:4 6.98345
3 *321:3 *321:5 0.181964
4 *321:5 *321:2 7.61991358
5 *321:2 *618:A1 2.27704
*END

*D_NET *322 0.00158466

*CONN
*I *743:Z O *C 663.32 150.08 *L 0 *D CKXOR2D1BWP7T
*I *622:A1 I *C 672.84 155.12 *L 0.00303 *D INR2D1BWP7T

*CAP
1 *743:Z 0.0004041
2 *322:2 3.57805e-05
3 *322:3 0.00065009
4 *322:4 0.000494687

*RES
1 *622:A1 *322:4 6.98348
2 *322:4 *322:2 8.23042774
3 *322:2 *322:3 2.73967
4 *743:Z *322:3 1.56142
*END

*D_NET *323 0.00080645

*CONN
*I *744:S O *C 766.36 150.64 *L 0 *D HA1D0BWP7T
*I *617:A1 I *C 764.68 155.12 *L 0.00303 *D INR2D1BWP7T

*CAP
1 *323:2 0.000146269
2 *323:3 0.00035087
3 *323:4 1.83105e-06
4 *323:5 0.000307482

*RES
1 *323:5 *323:2 7.61991358
2 *323:2 *744:S 0.50601
3 *323:3 *323:5 0.181964
4 *323:3 *323:4 0.636466
5 *617:A1 *323:4 6.98345
*END

*D_NET *324 0.001509

*CONN
*I *734:S O *C 780.36 156.24 *L 0 *D HA1D0BWP7T
*I *621:A1 I *C 784.28 162.96 *L 0.00303 *D INR2D1BWP7T

*CAP
1 *734:S 0.000339034
2 *324:2 4.06371e-05
3 *324:3 0.00079355
4 *324:4 0.000335777

*RES
1 *324:4 *324:5 0.844263
2 *621:A1 *324:5 6.98345
3 *324:3 *324:4 0.415611
4 *324:3 *324:2 8.63311768
5 *734:S *324:2 1.26501
*END

*D_NET *325 0.00054665

*CONN
*I *723:S O *C 785.96 142.8 *L 0 *D HA1D0BWP7T
*I *620:A1 I *C 785.96 147.28 *L 0.00303 *D INR2D1BWP7T

*CAP
1 *325:3 0.00054665

*RES
1 *325:3 *325:2 1.24696
2 *620:A1 *325:2 6.98348808
3 *723:S *325:3 6.98348808
*END

*D_NET *326 0.00107802

*CONN
*I *719:Z O *C 784.28 141.12 *L 0 *D CKXOR2D1BWP7T
*I *623:A1 I *C 787.08 136.08 *L 0.00303 *D INR2D1BWP7T

*CAP
1 *719:Z 0.000396521
2 *623:A1 0.000113989
3 *326:2 3.46331e-05
4 *326:3 2.1322e-07
5 *326:4 3.34071e-05
6 *326:5 2.1322e-07
7 *326:6 0.00049905

*RES
1 *326:4 *326:6 6.98348
2 *326:6 *326:2 8.23042774
3 *326:2 *326:3 0.0867802
4 *623:A1 *326:3 0.419207
5 *326:4 *326:5 0.0867802
6 *719:Z *326:5 1.68424
*END

*D_NET *327 0.00060087

*CONN
*I *740:S O *C 806.12 140.56 *L 0 *D HA1D0BWP7T
*I *624:A1 I *C 806.12 143.92 *L 0.00303 *D INR2D1BWP7T

*CAP
1 *327:3 0.00060087

*RES
1 *327:3 *327:2 1.24696
2 *624:A1 *327:2 6.98348808
3 *740:S *327:3 6.98348808
*END

*D_NET *328 0.00149982

*CONN
*I *736:Z O *C 811.16 156.8 *L 0 *D CKXOR2D1BWP7T
*I *625:A1 I *C 806.68 162.96 *L 0.00303 *D INR2D1BWP7T

*CAP
1 *736:Z 6.25518e-05
2 *625:A1 0.000396905
3 *328:2 3.18062e-05
4 *328:3 4.65528e-05
5 *328:4 0.000300073
6 *328:5 0.00066193

*RES
1 *328:4 *328:5 0.389792
2 *328:5 *328:3 8.86685276
3 *736:Z *328:3 0.253006
4 *328:4 *328:2 7.61995
5 *625:A1 *328:2 1.77104
*END

*D_NET *329 0.0023211

*CONN
*I *738:S O *C 758.52 148.4 *L 0 *D HA1D0BWP7T
*I *616:A1 I *C 752.36 159.6 *L 0.00303 *D INR2D1BWP7T

*CAP
1 *616:A1 0.000441906
2 *329:2 5.5145e-05
3 *329:3 0.00087293
4 *329:4 6.42027e-05
5 *329:5 0.000509825
6 *329:6 3.4832e-05
7 *329:7 0.000342272

*RES
1 *738:S *329:5 6.98352
2 *329:5 *329:3 1.16527
3 *329:2 *329:3 2.17288
4 *329:2 *329:4 0.291319
5 *329:7 *329:4 0.306249
6 *329:7 *329:6 7.82773685
7 *616:A1 *329:6 2.02406
*END

*D_NET *330 0.00034047

*CONN
*I *732:Z O *C 745.64 142.24 *L 0 *D CKXOR2D1BWP7T
*I *628:A1 I *C 742.28 143.92 *L 0.00303 *D INR2D1BWP7T

*CAP
1 *628:A1 0.00034047

*RES
1 *628:A1 *732:Z 1.51801
*END

*D_NET *331 0.0005347

*CONN
*I *737:S O *C 233.24 134.96 *L 0 *D HA1D0BWP7T
*I *629:A1 I *C 233.24 139.44 *L 0.00303 *D INR2D1BWP7T

*CAP
1 *331:3 0.0005347

*RES
1 *331:3 *331:2 1.24696
2 *629:A1 *331:2 6.98348808
3 *737:S *331:3 6.98348808
*END

*D_NET *332 0.0005687

*CONN
*I *726:S O *C 234.92 148.4 *L 0 *D HA1D0BWP7T
*I *631:A1 I *C 234.92 151.76 *L 0.00303 *D INR2D1BWP7T

*CAP
1 *332:2 9.43608e-05
2 *332:3 7.24153e-06
3 *332:4 0.0004671

*RES
1 *332:4 *332:2 1.16534
2 *332:3 *332:2 0.0816246
3 *631:A1 *332:3 6.98348808
4 *726:S *332:4 6.98348808
*END

*D_NET *333 0.00174554

*CONN
*I *717:S O *C 217.56 150.64 *L 0 *D HA1D0BWP7T
*I *632:A1 I *C 225.4 147.28 *L 0.00303 *D INR2D1BWP7T

*CAP
1 *333:2 0.000186679
2 *333:4 0.000599335
3 *333:5 0.00095953

*RES
1 *333:5 *333:4 8.02268
2 *632:A1 *333:4 6.9835
3 *333:5 *333:2 9.893013
4 *333:2 *333:3 0.207866
5 *717:S *333:3 6.9835
*END

*D_NET *334 0.0008925

*CONN
*I *715:Z O *C 221.48 156.8 *L 0 *D CKXOR2D1BWP7T
*I *634:A1 I *C 222.04 162.96 *L 0.00303 *D INR2D1BWP7T

*CAP
1 *334:2 8.49621e-05
2 *334:3 0.00080754

*RES
1 *715:Z *334:3 6.98351
2 *334:3 *334:2 9.47736645
3 *334:2 *634:A1 0.253073
*END

*D_NET *335 0.00071077

*CONN
*I *733:S O *C 273.56 140.56 *L 0 *D HA1D0BWP7T
*I *636:A1 I *C 275.24 143.92 *L 0.00303 *D INR2D1BWP7T

*CAP
1 *733:S 0.000126369
2 *335:2 3.94005e-05
3 *335:3 8.51374e-05
4 *335:4 0.00045986

*RES
1 *733:S *335:2 0.505987
2 *335:4 *335:2 8.23042774
3 *335:3 *335:4 6.98348
4 *335:3 *636:A1 0.253057
*END

*D_NET *336 0.00138442

*CONN
*I *728:Z O *C 263.48 148.96 *L 0 *D CKXOR2D1BWP7T
*I *635:A1 I *C 269.08 151.76 *L 0.00303 *D INR2D1BWP7T

*CAP
1 *336:2 0.000106206
2 *336:3 0.000217693
3 *336:4 5.71421e-06
4 *336:6 0.000344219
5 *336:7 0.00071059

*RES
1 *635:A1 *336:4 6.98351
2 *336:4 *336:2 0.0815798
3 *336:6 *336:2 0.957526
4 *336:6 *336:7 6.98351
5 *336:7 *336:5 9.06171989
6 *336:3 *336:5 0.207821
7 *728:Z *336:3 6.98351
*END

*D_NET *337 0.000723903

*CONN
*I *730:S O *C 318.36 142.8 *L 0 *D HA1D0BWP7T
*I *637:A1 I *C 320.04 147.28 *L 0.00303 *D INR2D1BWP7T

*CAP
1 *337:2 0.000199293
2 *337:3 0.00052461

*RES
1 *337:3 *337:2 8.23042774
2 *337:2 *637:A1 0.759044
3 *730:S *337:3 6.98348
*END

*D_NET *338 6.89e-06

*CONN
*I *725:Z O *C 333.48 142.24 *L 0 *D CKXOR2D1BWP7T
*I *640:A1 I *C 334.04 143.92 *L 0.00303 *D INR2D1BWP7T

*CAP
1 *725:Z 6.89e-06

*RES
1 *725:Z *640:A1 0.253002
*END

*D_NET *339 0.00066554

*CONN
*I *729:S O *C 431.48 150.64 *L 0 *D HA1D0BWP7T
*I *641:A1 I *C 430.92 155.12 *L 0.00303 *D INR2D1BWP7T

*CAP
1 *339:2 1.61615e-05
2 *339:3 0.000301461
3 *339:4 6.36872e-06
4 *339:5 0.00034155

*RES
1 *339:3 *339:2 0.636374
2 *339:5 *339:2 0.181897
3 *339:5 *339:4 0.636374
4 *641:A1 *339:4 6.98348808
5 *729:S *339:3 6.98348808
*END

*D_NET *340 6.83e-06

*CONN
*I *724:Z O *C 446.04 150.08 *L 0 *D CKXOR2D1BWP7T
*I *642:A1 I *C 448.28 151.76 *L 0.00303 *D INR2D1BWP7T

*CAP
1 *724:Z 6.83e-06

*RES
1 *724:Z *642:A1 1.01201
*END

*D_NET *341 0.00069555

*CONN
*I *727:S O *C 493.64 142.8 *L 0 *D HA1D0BWP7T
*I *627:A1 I *C 492.52 147.28 *L 0.00303 *D INR2D1BWP7T

*CAP
1 *627:A1 6.21214e-05
2 *341:2 4.10788e-05
3 *341:3 0.00058359
4 *341:4 8.76253e-06

*RES
1 *341:3 *341:4 0.194839
2 *727:S *341:4 6.98353
3 *341:3 *341:2 8.24338341
4 *627:A1 *341:2 0.252952
*END

*D_NET *342 0.00197273

*CONN
*I *721:Z O *C 488.6 133.28 *L 0 *D CKXOR2D1BWP7T
*I *638:A1 I *C 496.44 131.6 *L 0.00303 *D INR2D1BWP7T

*CAP
1 *638:A1 5.67988e-06
2 *342:2 0.000228396
3 *342:3 0.000115267
4 *342:4 6.8871e-05
5 *342:5 0.000220355
6 *342:6 0.00133416

*RES
1 *342:5 *342:6 6.98351
2 *342:6 *342:3 9.47736645
3 *342:3 *342:4 0.181923
4 *721:Z *342:4 6.98351
5 *342:5 *342:2 7.19132
6 *342:2 *638:A1 0.759074
*END

*D_NET *343 0.00220572

*CONN
*I *722:S O *C 634.76 142.8 *L 0 *D HA1D0BWP7T
*I *646:A1 I *C 638.68 155.12 *L 0.00303 *D INR2D1BWP7T

*CAP
1 *722:S 0.000184161
2 *343:2 3.80051e-05
3 *343:3 0.000263509
4 *343:4 0.00010656
5 *343:5 0.000281758
6 *343:6 0.000380789
7 *343:7 2.55793e-06
8 *343:8 0.00021965
9 *343:9 5.28224e-06
10 *343:10 4.1998e-05
11 *343:11 0.00068144

*RES
1 *343:2 *343:4 0.493306
2 *722:S *343:4 0.771685
3 *343:6 *343:2 7.38617849
4 *343:6 *343:8 0.415653
5 *343:8 *343:10 0.623479
6 *343:10 *343:11 0.103913
7 *343:11 *343:3 1.80169
8 *343:9 *343:3 0.718038
9 *343:5 *343:9 0.103913
10 *343:5 *343:7 0.610518
11 *646:A1 *343:7 6.98349
*END

*D_NET *344 0.00164749

*CONN
*I *718:Z O *C 630.28 148.96 *L 0 *D CKXOR2D1BWP7T
*I *647:A1 I *C 635.88 155.12 *L 0.00303 *D INR2D1BWP7T

*CAP
1 *718:Z 0.00064151
2 *344:2 0.000497722
3 *344:3 0.000459086
4 *344:4 4.91692e-05

*RES
1 *647:A1 *344:4 6.98346
2 *344:4 *344:2 1.32858
3 *344:3 *344:2 8.14878273
4 *718:Z *344:3 2.53008
*END

*D_NET *345 0.00103544

*CONN
*I *720:S O *C 666.68 132.72 *L 0 *D HA1D1BWP7T
*I *643:A1 I *C 670.04 136.08 *L 0.00303 *D INR2D1BWP7T

*CAP
1 *345:2 1.98825e-06
2 *345:3 0.000176767
3 *345:4 0.00051098
4 *345:5 9.98335e-05
5 *345:6 8.83017e-05
6 *345:7 0.000141883
7 *345:8 1.56877e-05

*RES
1 *345:5 *345:2 6.98348808
2 *345:7 *345:2 0.415689
3 *345:7 *345:3 0.415689
4 *720:S *345:3 6.98348808
5 *345:8 *345:5 0.132134
6 *345:8 *345:4 0.107945
7 *345:6 *345:4 1.51805
8 *345:6 *643:A1 0.139486
*END

*D_NET *346 0.00027488

*CONN
*I *716:Z O *C 692.44 133.28 *L 0 *D XOR2D1BWP7T
*I *649:A1 I *C 694.68 131.6 *L 0.00303 *D INR2D1BWP7T

*CAP
1 *716:Z 0.00027488

*RES
1 *716:Z *649:A1 1.01201
*END

*D_NET *347 0.00366626

*CONN
*I *436:B1 I *C 567 155.68 *L 0.00483 *D AO22D1BWP7T
*I *523:ZN O *C 583.8 157.92 *L 0 *D INVD1BWP7T
*I *521:B1 I *C 583.8 162.96 *L 0.00247 *D INR2D0BWP7T
*I *519:A1 I *C 577.64 155.68 *L 0.00283 *D CKAN2D1BWP7T

*CAP
1 *347:4 0.000183667
2 *347:5 0.00109424
3 *347:6 0.000697018
4 *347:7 0.000813747
5 *347:8 0.000424105
6 *347:9 0.000453508

*RES
1 *519:A1 *347:8 6.98354
2 *347:8 *347:6 8.02260399
3 *347:6 *523:ZN 2.78299
4 *523:ZN *347:9 6.98354
5 *347:9 *347:10 1.02621
6 *521:B1 *347:10 6.98354
7 *347:6 *347:4 0.807818
8 *347:5 *347:4 3.99918
9 *347:7 *347:5 8.02260399
10 *436:B1 *347:7 6.98354
*END

*D_NET *348 0.0287688

*CONN
*I *522:Z O *C 572.6 156.24 *L 0 *D CKAN2D1BWP7T
*I *510:S I *C 563.08 155.12 *L 0.00808 *D CKMUX2D1BWP7T
*I *509:S I *C 555.24 136.08 *L 0.00808 *D CKMUX2D1BWP7T
*I *505:S I *C 505.96 155.12 *L 0.00808 *D CKMUX2D1BWP7T
*I *503:I I *C 581 174.72 *L 0.00498 *D INVD1BWP7T
*I *502:S I *C 504.84 167.44 *L 0.00808 *D CKMUX2D1BWP7T
*I *499:S I *C 504.84 178.64 *L 0.00808 *D CKMUX2D1BWP7T
*I *497:S I *C 488.6 186.48 *L 0.00808 *D CKMUX2D1BWP7T
*I *495:S I *C 492.52 175.28 *L 0.00808 *D CKMUX2D1BWP7T
*I *493:S I *C 496.44 162.96 *L 0.00808 *D CKMUX2D1BWP7T
*I *491:S I *C 499.8 155.12 *L 0.00808 *D CKMUX2D1BWP7T
*I *489:S I *C 502.6 139.44 *L 0.00808 *D CKMUX2D1BWP7T
*I *487:S I *C 516.6 139.44 *L 0.00808 *D CKMUX2D1BWP7T
*I *485:S I *C 515.48 151.76 *L 0.00808 *D CKMUX2D1BWP7T
*I *483:S I *C 530.04 143.92 *L 0.00808 *D CKMUX2D1BWP7T
*I *481:S I *C 545.16 147.28 *L 0.00808 *D CKMUX2D1BWP7T
*I *479:S I *C 553 139.44 *L 0.00808 *D CKMUX2D1BWP7T

*CAP
1 *348:17 0.000171529
2 *348:18 0.00112916
3 *348:19 0.000606376
4 *348:20 0.000795203
5 *348:21 0.00125763
6 *348:24 0.000124494
7 *348:25 7.96676e-05
8 *348:26 0.000171578
9 *348:27 0.000742329
10 *348:28 7.80482e-05
11 *348:29 0.000533579
12 *348:30 0.000935769
13 *348:31 0.000555808
14 *348:32 0.000180828
15 *348:33 0.000317345
16 *348:34 7.85144e-06
17 *348:35 0.000930175
18 *348:36 2.69648e-05
19 *348:37 3.63129e-06
20 *348:38 0.000234979
21 *348:39 0.000419782
22 *348:40 0.000568052
23 *348:41 0.000226146
24 *348:42 0.000344138
25 *348:44 7.99865e-06
26 *348:45 0.000539835
27 *348:46 3.53315e-05
28 *348:47 0.000706384
29 *348:48 0.00135116
30 *348:49 0.000236549
31 *348:50 0.00102052
32 *348:51 0.000224993
33 *348:52 0.000205781
34 *348:53 0.000637169
35 *348:54 0.000410458
36 *348:55 0.000600218
37 *348:56 6.37929e-06
38 *348:57 0.000430308
39 *348:58 0.0001559
40 *348:59 0.000877791
41 *348:60 0.00160795
42 *348:61 1.03786e-05
43 *348:62 0.000140639
44 *348:63 0.000416789
45 *348:64 0.00088709
46 *348:65 6.89454e-05
47 *348:66 0.000494493
48 *348:67 7.45887e-05
49 *348:68 0.000636997
50 *348:69 0.000922372
51 *348:70 0.000662416
52 *348:71 0.000155679
53 *348:72 0.000490862
54 *348:74 0.000197366
55 *348:75 0.000297201
56 *348:76 5.5917e-05
57 *348:77 0.00012685
58 *348:78 0.000104841
59 *348:79 0.000684425
60 *348:80 5.38314e-05
61 *348:81 0.000300244
62 *348:82 2.23521e-05
63 *348:83 0.000859536
64 *348:17 *22:3 0.00067719
65 *348:17 *26:10 0.00064599
66 *348:74 *395:4 0.00028605

*RES
1 *348:31 *348:37 0.597503
2 *348:37 *348:26 0.48498
3 *348:47 *348:26 2.4375
4 *348:79 *348:47 8.64616
5 *348:51 *348:79 6.98353
6 *495:S *348:51 6.98353
7 *348:79 *348:80 0.610472
8 *348:80 *348:20 0.207875
9 *348:20 *348:82 3.32508
10 *348:81 *348:82 0.233813
11 *348:81 *348:72 7.594
12 *348:69 *348:72 2.90952
13 *502:S *348:69 6.98353
14 *348:69 *348:83 6.98353
15 *348:83 *348:22 9.2696
16 *348:66 *348:22 2.09117
17 *348:19 *348:66 2.68867
18 *348:58 *348:19 0.389811
19 *348:58 *348:61 0.220844
20 *491:S *348:61 6.98353
21 *348:21 *348:19 9.68517
22 *348:21 *348:74 7.19122
23 *505:S *348:74 6.98353
24 *348:21 *348:76 9.4773
25 *348:75 *348:76 0.844285
26 *348:75 *348:78 0.181936
27 *348:77 *348:78 0.194905
28 *485:S *348:77 6.98353
29 *348:78 *348:28 0.338116
30 *348:23 *348:28 0.285508
31 *348:23 *348:24 0.302496
32 *348:35 *348:24 2.21739
33 *348:35 *348:44 0.597503
34 *348:42 *348:44 1.05216
35 *348:60 *348:42 11.9712448
36 *348:60 *348:65 0.610472
37 *348:63 *348:65 0.233813
38 *348:63 *348:67 1.63669
39 *348:67 *348:68 0.207875
40 *348:68 *348:71 2.50692
41 *348:71 *348:27 0.558229
42 *348:53 *348:27 2.97491
43 *348:53 *348:40 8.45126
44 *348:33 *348:40 0.597503
45 *348:33 *348:36 0.220844
46 *479:S *348:36 6.98353
47 *348:40 *348:46 0.181936
48 *348:45 *348:46 1.05216
49 *509:S *348:45 6.98353
50 *348:53 *348:50 9.2696
51 *348:50 *348:25 3.24361
52 *348:43 *348:25 0.081652
53 *348:70 *348:43 8.64616
54 *348:70 *348:48 8.23041
55 *510:S *348:48 6.98353
56 *348:48 *348:52 1.64966
57 *348:52 *348:30 7.20419
58 *348:59 *348:30 10.5254
59 *348:57 *348:59 1.24688
60 *522:Z *348:57 6.98353
61 *348:59 *348:62 3.3123
62 *348:62 *348:64 0.415567
63 *348:64 *348:41 9.28257
64 *348:41 *348:29 0.963202
65 *503:I *348:29 2.3259
66 *348:71 *348:55 8.64616
67 *481:S *348:55 6.98353
68 *348:60 *348:49 7.19122
69 *483:S *348:49 6.98353
70 *348:39 *348:42 1.03919
71 *487:S *348:39 6.98353
72 *348:19 *348:17 1.12084
73 *348:18 *348:17 4.28262
74 *348:38 *348:18 7.60697
75 *348:32 *348:38 6.98353
76 *489:S *348:32 6.98353
77 *348:54 *348:66 0.805377
78 *348:54 *348:56 0.428536
79 *493:S *348:56 6.98353
80 *348:72 *348:73 1.24688
81 *499:S *348:73 6.98353
82 *348:31 *348:34 1.25985
83 *497:S *348:34 6.98353
*END

*D_NET *349 0.00127273

*CONN
*I *521:ZN O *C 583.24 164.08 *L 0 *D INR2D0BWP7T
*I *501:A1 I *C 579.88 170.8 *L 0.00256 *D IND3D0BWP7T

*CAP
1 *349:3 0.00071442
2 *349:4 5.25445e-06
3 *349:5 0.000553058

*RES
1 *501:A1 *349:4 6.98348808
2 *349:5 *349:4 0.428583
3 *349:5 *349:2 1.22107
4 *349:3 *349:2 2.09123
5 *521:ZN *349:3 6.98348808
*END

*D_NET *350 0.0177238

*CONN
*I *519:Z O *C 575.4 156.24 *L 0 *D CKAN2D1BWP7T
*I *458:S I *C 553 155.12 *L 0.00808 *D CKMUX2D1BWP7T
*I *457:S I *C 517.16 159.6 *L 0.00808 *D CKMUX2D1BWP7T
*I *453:S I *C 530.6 162.96 *L 0.00808 *D CKMUX2D1BWP7T
*I *451:I I *C 576.8 171.08 *L 0.00273 *D INVD0BWP7T
*I *450:S I *C 545.72 170.8 *L 0.00808 *D CKMUX2D1BWP7T
*I *447:S I *C 532.28 178.64 *L 0.00808 *D CKMUX2D1BWP7T
*I *445:S I *C 521.64 183.12 *L 0.00808 *D CKMUX2D1BWP7T
*I *443:S I *C 515.48 170.8 *L 0.00808 *D CKMUX2D1BWP7T

*CAP
1 *350:9 0.000217521
2 *350:10 7.65873e-05
3 *350:11 3.50204e-05
4 *350:12 6.97482e-05
5 *350:13 0.000214833
6 *350:17 0.000486853
7 *350:18 0.000346479
8 *350:19 8.56085e-05
9 *350:20 0.000877666
10 *350:21 0.00121193
11 *350:22 0.000529032
12 *350:23 0.00045178
13 *350:24 0.00040694
14 *350:25 0.000233141
15 *350:26 4.14604e-05
16 *350:28 0.00174397
17 *350:29 0.000317898
18 *350:30 0.000103119
19 *350:31 5.44201e-05
20 *350:32 0.00129698
21 *350:33 0.000532332
22 *350:34 0.000186838
23 *350:35 0.000120762
24 *350:36 0.000111554
25 *350:37 3.48608e-06
26 *350:38 0.000673824
27 *350:39 8.39586e-05
28 *350:40 5.26903e-06
29 *350:41 7.50172e-05
30 *350:42 0.000155596
31 *350:43 0.00116661
32 *350:44 0.000372292
33 *350:45 1.24541e-05
34 *350:46 0.000439352
35 *350:47 0.00125328
36 *350:48 0.000202006
37 *350:49 0.000678135
38 *350:50 0.000106259
39 *350:52 3.06828e-05
40 *350:47 *23:60 0.00078795
41 *350:11 *40:6 0.00106446
42 *350:20 *354:2 0.00046315
43 *350:33 *410:2 0.00039757

*RES
1 *350:35 *350:39 0.610473
2 *350:39 *350:21 10.5294
3 *350:21 *350:26 0.181872
4 *350:24 *350:26 1.27291
5 *350:19 *350:24 0.207854
6 *350:17 *350:19 1.02618
7 *458:S *350:17 6.98342
8 *350:39 *350:41 0.610473
9 *350:41 *350:43 0.415707
10 *350:43 *350:45 5.61127
11 *350:44 *350:45 0.441494
12 *350:44 *350:30 8.63316
13 *350:28 *350:30 5.61127
14 *519:Z *350:28 6.98342
15 *350:30 *350:12 7.18775
16 *350:14 *350:12 0.288924
17 *451:I *350:14 0.139481
18 *350:35 *350:37 0.23364
19 *350:33 *350:37 2.286
20 *350:31 *350:33 0.207854
21 *350:31 *350:11 0.260208
22 *350:52 *350:11 0.350265
23 *350:42 *350:52 6.98342
24 *450:S *350:42 6.98342
25 *350:50 *350:52 0.610473
26 *350:50 *350:51 0.23364
27 *350:49 *350:51 2.90956
28 *350:48 *350:49 0.207854
29 *350:48 *350:36 7.59408
30 *350:36 *350:38 0.194961
31 *350:34 *350:38 0.623561
32 *350:32 *350:34 3.31218
33 *350:47 *350:32 7.60698
34 *350:47 *350:20 12.8025379
35 *350:18 *350:20 0.623561
36 *457:S *350:18 6.98342
37 *350:20 *350:22 3.31218
38 *350:22 *350:23 1.67553
39 *350:23 *350:25 1.45478
40 *350:25 *350:27 0.636454
41 *350:46 *350:27 8.64605
42 *350:29 *350:46 6.98342
43 *350:29 *350:9 0.567105
44 *350:15 *350:9 0.26431
45 *445:S *350:15 6.98342
46 *350:22 *350:10 0.285408
47 *350:13 *350:10 0.312171
48 *350:13 *350:16 0.220747
49 *443:S *350:16 6.98342
50 *453:S *350:32 6.98342
51 *350:38 *350:40 2.50675
52 *447:S *350:40 6.98342
*END

*D_NET *351 0.00134793

*CONN
*I *520:ZN O *C 576.52 164.08 *L 0 *D INR2D0BWP7T
*I *449:A1 I *C 574.84 170.8 *L 0.00256 *D IND3D0BWP7T

*CAP
1 *449:A1 0.000162612
2 *351:2 1.51519e-05
3 *351:3 0.000130212
4 *351:4 6.37893e-05
5 *351:5 5.10144e-05
6 *351:6 0.00079886
7 *351:7 0.000126287

*RES
1 *351:5 *351:3 0.181897
2 *351:7 *351:3 0.107625
3 *351:7 *351:2 0.113166
4 *351:4 *351:2 6.98348808
5 *449:A1 *351:4 0.506051
6 *351:6 *351:5 2.29902
7 *520:ZN *351:6 6.98348808
*END

*D_NET *352 0.00357805

*CONN
*I *436:B2 I *C 567.84 155.4275 *L 0.00491 *D AO22D1BWP7T
*I *456:Q O *C 553.56 164.64 *L 0 *D DFKCNQD1BWP7T
*I *454:A2 I *C 555.8 159.04 *L 0.00339 *D CKXOR2D1BWP7T

*CAP
1 *352:3 0.000530012
2 *352:5 0.000424256
3 *352:6 0.000859043
4 *352:8 0.000632828
5 *352:9 0.00112039
6 *352:10 1.15227e-05

*RES
1 *352:3 *352:4 0.623412
2 *456:Q *352:4 6.98344
3 *352:8 *352:3 7.81481
4 *352:8 *352:10 1.23405
5 *352:9 *352:10 0.441622
6 *352:9 *352:7 10.0878801
7 *352:6 *352:7 1.55868
8 *436:B2 *352:6 6.98344
9 *352:8 *352:5 7.60701
10 *454:A2 *352:5 6.98344
*END

*D_NET *353 0.00253148

*CONN
*I *436:A2 I *C 568.96 155.42 *L 0.00501 *D AO22D1BWP7T
*I *508:Q O *C 564.76 164.64 *L 0 *D DFKCNQD1BWP7T
*I *506:A2 I *C 560.84 159.04 *L 0.00339 *D CKXOR2D1BWP7T

*CAP
1 *508:Q 0.000467286
2 *353:3 3.18091e-05
3 *353:4 0.000192021
4 *353:5 0.000476763
5 *353:6 0.000383996
6 *353:8 0.00097961

*RES
1 *353:4 *353:5 0.402701
2 *353:5 *353:6 1.45471
3 *353:6 *353:7 0.844238
4 *508:Q *353:7 6.98349
5 *508:Q *353:3 1.77108
6 *353:8 *353:3 9.7891016
7 *436:A2 *353:8 6.98349
8 *506:A2 *353:4 6.98349
*END

*D_NET *354 0.00508649

*CONN
*I *460:Z O *C 490.84 164.64 *L 0 *D AO21D0BWP7T
*I *453:I1 I *C 528.92 163.52 *L 0.00385 *D CKMUX2D1BWP7T

*CAP
1 *460:Z 0.000113735
2 *354:2 0.000296331
3 *354:3 4.35002e-05
4 *354:4 0.000251941
5 *354:5 0.000843653
6 *354:6 3.67254e-05
7 *354:7 0.000160249
8 *354:9 0.000697095
9 *354:10 2.74227e-05
10 *354:11 0.00132533
11 *354:12 5.16502e-05
12 *354:5 *58:47 0.00059834
13 *354:2 *350:20 0.00046315
14 *354:4 *361:10 0.000177359991

*RES
1 *354:11 *354:7 11.9582891
2 *354:6 *354:7 6.98345
3 *460:Z *354:6 0.505987
4 *354:5 *354:11 0.233743
5 *354:5 *354:3 3.29922
6 *354:3 *354:12 0.207832
7 *354:12 *354:2 0.338115
8 *354:10 *354:2 2.15587
9 *354:9 *354:10 0.233743
10 *354:9 *354:4 9.87997
11 *354:4 *354:8 0.415664
12 *453:I1 *354:8 6.98345
*END

*D_NET *355 0.00461117

*CONN
*I *458:I0 I *C 553.56 155.68 *L 0.00371 *D CKMUX2D1BWP7T
*I *455:Q O *C 535.64 157.92 *L 0 *D DFKCNQD1BWP7T
*I *454:A1 I *C 558.6 159.04 *L 0.00651 *D CKXOR2D1BWP7T

*CAP
1 *455:Q 0.000822303
2 *355:3 0.00094816
3 *355:4 5.95937e-05
4 *355:5 0.000198298
5 *355:6 0.000705966
6 *355:7 0.000344367
7 *355:8 0.000174556
8 *355:9 0.000163966
9 *355:10 0.000303148
10 *355:11 6.43536e-05
11 *355:12 0.000826441

*RES
1 *355:9 *355:3 0.363283
2 *355:11 *355:3 2.36438
3 *355:10 *355:11 0.103892
4 *355:10 *355:12 0.610516
5 *355:12 *355:6 8.23041
6 *458:I0 *355:6 6.98344
7 *355:12 *355:8 8.85389709
8 *454:A1 *355:8 6.98344
9 *355:7 *355:9 0.103892
10 *355:7 *355:5 7.59396
11 *355:4 *355:5 6.98344
12 *455:Q *355:4 3.289
*END

*D_NET *356 0.00120694

*CONN
*I *457:I0 I *C 516.6 159.04 *L 0.00371 *D CKMUX2D1BWP7T
*I *442:Q O *C 513.24 164.64 *L 0 *D DFKCNQD1BWP7T

*CAP
1 *356:2 0.000200448
2 *356:3 0.00054332
3 *356:4 0.000419998
4 *356:6 4.31688e-05

*RES
1 *457:I0 *356:4 6.98346
2 *356:4 *356:6 0.623492
3 *356:6 *356:2 7.48968
4 *356:3 *356:2 7.72422934
5 *356:3 *356:5 0.623492
6 *442:Q *356:5 6.98346
*END

*D_NET *357 0.00105974

*CONN
*I *444:Q O *C 514.36 180.32 *L 0 *D DFKCNQD1BWP7T
*I *443:I0 I *C 514.92 171.36 *L 0.00371 *D CKMUX2D1BWP7T

*CAP
1 *357:2 9.87867e-05
2 *357:3 0.00084927
3 *357:4 0.000111681

*RES
1 *357:4 *357:2 0.194897
2 *357:3 *357:2 2.50681
3 *443:I0 *357:3 6.98348808
4 *444:Q *357:4 6.98348808
*END

*D_NET *358 0.00193319

*CONN
*I *446:Q O *C 514.36 173.6 *L 0 *D DFKCNQD1BWP7T
*I *445:I0 I *C 521.08 182.56 *L 0.00371 *D CKMUX2D1BWP7T

*CAP
1 *358:2 0.00074496
2 *358:3 0.000189414
3 *358:4 0.000585828
4 *358:5 0.000248695
5 *358:6 2.74976e-05
6 *358:7 0.000136795

*RES
1 *358:7 *358:4 7.30858
2 *358:4 *358:2 9.15227127
3 *358:2 *358:3 2.02189
4 *358:6 *358:3 0.264223
5 *445:I0 *358:6 6.98347
6 *358:5 *358:7 0.207803
7 *446:Q *358:5 6.98347
*END

*D_NET *359 0.00105848

*CONN
*I *448:Q O *C 539.56 180.32 *L 0 *D DFKCNQD1BWP7T
*I *447:I0 I *C 532.84 179.2 *L 0.00371 *D CKMUX2D1BWP7T

*CAP
1 *359:2 0.0006218
2 *359:3 0.000112111
3 *359:4 0.000198652
4 *359:5 0.000125916

*RES
1 *359:3 *359:4 0.194903
2 *359:4 *359:5 0.623514
3 *359:5 *359:2 7.20426702
4 *359:2 *448:Q 2.27706
5 *447:I0 *359:3 6.98353
*END

*D_NET *360 0.00198373

*CONN
*I *452:Q O *C 536.2 165.76 *L 0 *D DFKSND1BWP7T
*I *450:I0 I *C 545.16 171.36 *L 0.00371 *D CKMUX2D1BWP7T

*CAP
1 *360:2 0.000248811
2 *360:4 0.000720934
3 *360:5 0.00101398

*RES
1 *450:I0 *360:4 6.98354
2 *360:5 *360:4 8.02265
3 *360:5 *360:3 10.3086596
4 *360:2 *360:3 0.20779
5 *452:Q *360:2 6.98354
*END

*D_NET *361 0.0115425

*CONN
*I *456:CP I *C 543.285 163.2675 *L 0.00294 *D DFKCNQD1BWP7T
*I *455:CP I *C 525.365 159.2925 *L 0.00294 *D DFKCNQD1BWP7T
*I *452:CP I *C 526.94 167.155 *L 0.00289 *D DFKSND1BWP7T
*I *448:CP I *C 549.835 178.9475 *L 0.00294 *D DFKCNQD1BWP7T
*I *446:CP I *C 524.635 174.9725 *L 0.00294 *D DFKCNQD1BWP7T
*I *444:CP I *C 524.635 178.9475 *L 0.00294 *D DFKCNQD1BWP7T
*I *442:CP I *C 523.515 163.2675 *L 0.00294 *D DFKCNQD1BWP7T
*I *441:Q O *C 543.48 158.48 *L 0 *D CKLNQD1BWP7T

*CAP
1 *361:8 0.000180136
2 *361:9 0.000126918
3 *361:10 0.000442685
4 *361:11 0.000603847
5 *361:12 3.22079e-05
6 *361:13 0.000132903
7 *361:14 0.000111445
8 *361:15 0.00113619
9 *361:17 8.68106e-05
10 *361:18 0.00040156
11 *361:19 7.00349e-06
12 *361:20 0.000146544
13 *361:21 0.000669729
14 *361:22 0.000591224
15 *361:23 0.000459868
16 *361:24 0.000362145
17 *361:25 0.000497858
18 *361:26 0.000332177
19 *361:28 0.00154386
20 *361:29 0.00266845
21 *361:8 *23:150 0.00054476
22 *361:10 *354:4 0.000177359973
23 *361:28 *395:2 0.0002868

*RES
1 *456:CP *361:23 6.98355
2 *361:22 *361:23 1.24697
3 *441:Q *361:22 6.98355
4 *361:28 *361:22 7.39921
5 *361:28 *361:20 13.633831
6 *361:20 *361:10 0.415655
7 *455:CP *361:10 6.98355
8 *361:25 *361:10 8.43835
9 *361:29 *361:25 11.1399
10 *361:26 *361:29 6.98355
11 *361:26 *361:17 7.39921
12 *361:17 *361:18 0.207828
13 *446:CP *361:18 6.98355
14 *361:18 *361:19 1.24697
15 *444:CP *361:19 6.98355
16 *361:25 *361:16 7.81486
17 *361:8 *361:16 0.207828
18 *442:CP *361:8 6.98355
19 *361:25 *361:27 0.623483
20 *361:21 *361:27 6.98355
21 *361:21 *361:14 8.23052
22 *361:14 *452:CP 0.126486
23 *361:23 *361:24 1.66262
24 *361:24 *361:11 7.74954
25 *361:12 *361:11 1.52012
26 *361:15 *361:12 11.1399
27 *361:13 *361:15 6.98355
28 *361:9 *361:13 6.98355
29 *448:CP *361:9 6.98355
*END

*D_NET *363 0.00262409

*CONN
*I *459:ZN O *C 555.24 174.16 *L 0 *D TIELBWP7T
*I *441:TE I *C 552.44 159.6 *L 0.0039 *D CKLNQD1BWP7T

*CAP
1 *363:2 0.00034036
2 *363:3 0.00097973
3 *363:4 0.000131617
4 *363:5 0.000421717
5 *363:6 3.77331e-05
6 *363:7 0.000712952

*RES
1 *441:TE *363:5 6.98352
2 *363:5 *363:6 0.636402
3 *363:3 *363:6 0.103851
4 *363:3 *363:4 2.67577
5 *363:4 *363:7 0.103851
6 *363:7 *363:2 9.07467651
7 *363:2 *459:ZN 1.26505
*END

*D_NET *364 0.00160693

*CONN
*I *458:Z O *C 550.2 156.8 *L 0 *D CKMUX2D1BWP7T
*I *456:D I *C 546.0375 163.2575 *L 0.0041 *D DFKCNQD1BWP7T

*CAP
1 *456:D 1.75225e-05
2 *364:2 6.40554e-05
3 *364:3 0.00090706
4 *364:4 0.000590354
5 *364:5 2.79447e-05

*RES
1 *364:4 *364:5 1.46777
2 *364:3 *364:5 1.42891
3 *364:3 *364:2 8.24338341
4 *456:D *364:2 0.126539
5 *458:Z *364:4 6.98353
*END

*D_NET *365 0.00147034

*CONN
*I *457:Z O *C 519.96 157.92 *L 0 *D CKMUX2D1BWP7T
*I *455:D I *C 528.1175 159.3025 *L 0.0041 *D DFKCNQD1BWP7T

*CAP
1 *457:Z 0.000497428
2 *365:2 6.06424e-05
3 *365:3 0.000110679
4 *365:4 0.000114617
5 *365:5 0.000178888
6 *365:6 0.00050808

*RES
1 *457:Z *365:2 2.02408
2 *365:2 *365:4 6.98348
3 *365:6 *365:4 8.23042774
4 *365:5 *365:6 6.98348
5 *365:5 *365:3 7.19133
6 *365:3 *455:D 0.126465
*END

*D_NET *366 0.00383468

*CONN
*I *454:Z O *C 554.68 157.92 *L 0 *D CKXOR2D1BWP7T
*I *453:I0 I *C 531.16 163.52 *L 0.00371 *D CKMUX2D1BWP7T

*CAP
1 *366:2 9.62673e-05
2 *366:3 0.0011073
3 *366:4 0.000601013
4 *366:6 0.000219586
5 *366:7 0.00123028
6 *366:8 0.000151985
7 *366:9 0.000428265

*RES
1 *453:I0 *366:5 6.98351
2 *366:4 *366:5 1.03909
3 *366:9 *366:4 8.00964832
4 *366:7 *366:9 0.23368
5 *366:7 *366:3 4.28605
6 *366:8 *366:3 3.18267
7 *366:6 *366:8 6.98351
8 *366:6 *366:2 7.19128
9 *366:2 *454:Z 0.25299
*END

*D_NET *367 0.00094156

*CONN
*I *453:Z O *C 527.8 164.64 *L 0 *D CKMUX2D1BWP7T
*I *452:D I *C 525.56 166.88 *L 0.00536 *D DFKSND1BWP7T

*CAP
1 *367:2 0.00018614
2 *367:3 0.000185358
3 *367:4 0.00057006

*RES
1 *367:4 *367:2 8.03555965
2 *367:2 *453:Z 0.506023
3 *367:3 *367:4 0.376667
4 *452:D *367:3 6.98354
*END

*D_NET *368 0.00112302

*CONN
*I *451:ZN O *C 577.64 171.92 *L 0 *D INVD0BWP7T
*I *449:B2 I *C 572.6 171.36 *L 0.0025 *D IND3D0BWP7T

*CAP
1 *368:2 0.000173012
2 *368:3 0.000342872
3 *368:4 0.000188129
4 *368:5 0.00040419
5 *368:6 1.48206e-05

*RES
1 *449:B2 *368:3 6.98347
2 *368:3 *368:5 0.415666
3 *368:5 *368:2 8.19034767
4 *368:6 *368:2 7.64708
5 *368:4 *368:6 0.207833
6 *451:ZN *368:4 6.98347
*END

*D_NET *369 0.00174691

*CONN
*I *450:Z O *C 548.52 172.48 *L 0 *D CKMUX2D1BWP7T
*I *448:D I *C 547.0825 178.9375 *L 0.0041 *D DFKCNQD1BWP7T

*CAP
1 *448:D 1.7517e-05
2 *369:2 6.62899e-05
3 *369:3 0.000569697
4 *369:4 8.53525e-05
5 *369:5 0.00066204
6 *369:6 5.25813e-05
7 *369:7 0.000284293
8 *369:8 9.14238e-06

*RES
1 *369:5 *369:6 1.06504
2 *369:3 *369:6 0.181964
3 *369:3 *369:4 1.66255
4 *369:4 *369:7 0.207776
5 *369:7 *369:2 7.61991358
6 *448:D *369:2 0.126502
7 *369:5 *369:8 0.610537
8 *450:Z *369:8 6.98345
*END

*D_NET *370 0.00172244

*CONN
*I *447:Z O *C 529.48 180.32 *L 0 *D CKMUX2D1BWP7T
*I *446:D I *C 521.8825 174.9825 *L 0.0041 *D DFKCNQD1BWP7T

*CAP
1 *370:2 0.000130038
2 *370:3 0.000510969
3 *370:4 0.000222965
4 *370:5 0.00085847

*RES
1 *447:Z *370:4 6.98355
2 *370:5 *370:4 7.39912
3 *370:5 *370:3 9.6851902
4 *370:3 *370:2 7.81483
5 *370:2 *446:D 0.126503
*END

*D_NET *371 0.00091278

*CONN
*I *445:Z O *C 524.44 181.44 *L 0 *D CKMUX2D1BWP7T
*I *444:D I *C 521.8825 178.9375 *L 0.0041 *D DFKCNQD1BWP7T

*CAP
1 *444:D 1.14355e-05
2 *371:2 0.000113029
3 *371:3 2.76696e-06
4 *371:4 0.00063403
5 *371:5 0.000151505

*RES
1 *371:4 *371:5 0.831301
2 *371:5 *371:3 0.220831
3 *445:Z *371:3 6.9835
4 *371:4 *371:2 7.80182505
5 *444:D *371:2 0.126546
*END

*D_NET *372 0.00123943

*CONN
*I *443:Z O *C 518.28 172.48 *L 0 *D CKMUX2D1BWP7T
*I *442:D I *C 520.7625 163.2575 *L 0.0041 *D DFKCNQD1BWP7T

*CAP
1 *443:Z 0.000245071
2 *442:D 1.72336e-05
3 *372:2 6.40657e-05
4 *372:3 3.89223e-05
5 *372:4 0.00087415

*RES
1 *372:4 *372:2 9.47736645
2 *442:D *372:2 0.126536
3 *372:3 *372:4 6.98351
4 *443:Z *372:3 1.012
*END

*D_NET *373 0.00439755

*CONN
*I *449:ZN O *C 572.8975 170.41 *L 0 *D IND3D0BWP7T
*I *441:E I *C 551.32 159.6 *L 0.00395 *D CKLNQD1BWP7T

*CAP
1 *373:2 0.000379106
2 *373:3 8.34269e-05
3 *373:4 0.000349155
4 *373:5 4.70475e-05
5 *373:6 1.93171e-05
6 *373:7 0.000673204
7 *373:8 8.90134e-05
8 *373:9 0.000412356
9 *373:11 0.000139426
10 *373:12 0.00220548

*RES
1 *373:9 *373:10 0.831371
2 *449:ZN *373:10 6.98351
3 *373:12 *373:9 14.6859026
4 *373:11 *373:12 0.207731
5 *373:11 *373:5 7.17825
6 *373:4 *373:5 0.636413
7 *373:4 *373:8 0.18196
8 *373:7 *373:8 1.89624
9 *373:3 *373:7 0.207731
10 *373:2 *373:3 0.623416
11 *373:2 *373:6 0.194958
12 *441:E *373:6 6.98351
*END

*D_NET *374 0.00121041

*CONN
*I *462:ZN O *C 486.36 171.36 *L 0 *D NR2D0BWP7T
*I *460:A2 I *C 488.04 162.96 *L 0.00272 *D AO21D0BWP7T

*CAP
1 *462:ZN 6.32757e-05
2 *374:2 0.000145779
3 *374:3 4.45587e-05
4 *374:4 0.0009568

*RES
1 *374:3 *374:4 6.98355
2 *374:4 *374:2 9.6851902
3 *374:2 *460:A2 0.506013
4 *462:ZN *374:3 0.253007
*END

*D_NET *375 0.00092365

*CONN
*I *461:ZN O *C 490.84 158.48 *L 0 *D NR4D0BWP7T
*I *460:A1 I *C 489.16 163.52 *L 0.0026 *D AO21D0BWP7T

*CAP
1 *375:2 0.000131617
2 *375:3 0.0005329
3 *375:4 0.000106954
4 *375:5 0.000152182

*RES
1 *375:3 *375:2 1.05206
2 *460:A1 *375:2 6.98348808
3 *375:4 *375:3 0.207791
4 *375:5 *375:4 0.194897
5 *461:ZN *375:5 6.98348808
*END

*D_NET *376 0.00343358

*CONN
*I *513:Z O *C 496.44 140.56 *L 0 *D OR2D0BWP7T
*I *505:I1 I *C 504.28 155.68 *L 0.00385 *D CKMUX2D1BWP7T

*CAP
1 *376:2 0.000314535
2 *376:3 0.0009446
3 *376:4 4.63688e-05
4 *376:5 4.20879e-05
5 *376:6 0.000392787
6 *376:7 0.000584503
7 *376:8 4.36014e-05
8 *376:9 0.000774403
9 *376:10 0.000290695

*RES
1 *376:10 *376:5 7.61987
2 *376:3 *376:5 3.54199
3 *376:7 *376:3 8.43825054
4 *513:Z *376:7 6.98355
5 *376:9 *376:10 0.103907
6 *376:9 *376:2 1.98364
7 *376:4 *376:2 0.900015
8 *376:4 *376:6 0.103907
9 *376:6 *376:8 0.636448
10 *505:I1 *376:8 6.98355
*END

*D_NET *377 0.00187781

*CONN
*I *510:I0 I *C 563.64 155.68 *L 0.00371 *D CKMUX2D1BWP7T
*I *507:Q O *C 564.2 148.96 *L 0 *D DFKCNQD1BWP7T
*I *506:A1 I *C 563.64 159.04 *L 0.00651 *D CKXOR2D1BWP7T

*CAP
1 *377:3 0.00066706
2 *377:4 9.06615e-05
3 *377:5 0.000587544
4 *377:7 0.000229397
5 *377:8 0.000303152

*RES
1 *377:7 *377:6 0.428583
2 *377:8 *377:6 0.181897
3 *377:8 *377:3 0.762647
4 *377:5 *377:3 1.53638
5 *510:I0 *377:5 6.98348808
6 *377:5 *377:4 1.24696
7 *506:A1 *377:4 6.98348808
8 *507:Q *377:7 6.98348808
*END

*D_NET *378 0.00242017

*CONN
*I *509:I0 I *C 554.68 135.52 *L 0.00371 *D CKMUX2D1BWP7T
*I *478:Q O *C 563.08 142.24 *L 0 *D DFKCNQD1BWP7T

*CAP
1 *378:2 0.000520283
2 *378:3 0.00011495
3 *378:4 0.000308635
4 *378:5 4.14093e-05
5 *378:6 0.000435026
6 *378:7 1.44735e-06
7 *378:8 0.00099844

*RES
1 *378:2 *378:3 1.02621
2 *378:3 *378:4 0.207785
3 *378:4 *378:5 0.636359
4 *378:8 *378:5 9.6851902
5 *378:8 *378:6 7.16547
6 *378:6 *378:7 1.05208
7 *478:Q *378:7 6.98355
8 *509:I0 *378:2 6.98355
*END

*D_NET *379 0.00306411

*CONN
*I *480:Q O *C 549.64 156.8 *L 0 *D DFKCNQD1BWP7T
*I *479:I0 I *C 552.44 140 *L 0.00371 *D CKMUX2D1BWP7T

*CAP
1 *379:2 0.000522224
2 *379:3 0.00119239
3 *379:4 7.20692e-05
4 *379:5 0.000727242
5 *379:6 0.000550171

*RES
1 *479:I0 *379:5 6.98351
2 *379:6 *379:5 8.64607334
3 *379:6 *379:3 8.02258
4 *379:3 *379:2 2.6201
5 *379:4 *379:2 1.12073
6 *480:Q *379:4 6.98351
*END

*D_NET *380 0.00134578

*CONN
*I *482:Q O *C 536.76 150.08 *L 0 *D DFKCNQD1BWP7T
*I *481:I0 I *C 544.6 147.84 *L 0.00371 *D CKMUX2D1BWP7T

*CAP
1 *482:Q 0.00083889
2 *380:2 3.57778e-05
3 *380:3 0.000471115

*RES
1 *481:I0 *380:3 6.98348
2 *380:3 *380:2 8.23042774
3 *482:Q *380:2 3.54204
*END

*D_NET *381 0.00103887

*CONN
*I *484:Q O *C 533.96 148.96 *L 0 *D DFKCNQD1BWP7T
*I *483:I0 I *C 530.6 143.36 *L 0.00371 *D CKMUX2D1BWP7T

*CAP
1 *381:3 0.000357023
2 *381:4 0.00046407
3 *381:5 0.000217777

*RES
1 *381:4 *381:3 1.24696
2 *381:3 *381:2 0.844271
3 *484:Q *381:2 6.98348808
4 *381:5 *381:4 0.402689
5 *483:I0 *381:5 6.98348808
*END

*D_NET *382 0.00167927

*CONN
*I *486:Q O *C 521.64 148.96 *L 0 *D DFKCNQD1BWP7T
*I *485:I0 I *C 514.92 151.2 *L 0.00371 *D CKMUX2D1BWP7T

*CAP
1 *382:2 0.00091383
2 *382:3 0.00054286
3 *382:4 0.000222577

*RES
1 *485:I0 *382:5 6.98351
2 *382:3 *382:5 1.03919
3 *382:3 *382:2 7.10077
4 *382:4 *382:2 9.36009502
5 *486:Q *382:4 6.98351
*END

*D_NET *383 0.00114499

*CONN
*I *488:Q O *C 521.64 142.24 *L 0 *D DFKCNQD1BWP7T
*I *487:I0 I *C 517.16 140 *L 0.00371 *D CKMUX2D1BWP7T

*CAP
1 *383:2 0.000256297
2 *383:4 0.000401402
3 *383:5 0.00048729

*RES
1 *383:2 *383:3 0.207788
2 *383:5 *383:3 8.64607334
3 *383:5 *383:4 7.81479
4 *488:Q *383:4 6.98351
5 *487:I0 *383:2 6.98351
*END

*D_NET *384 0.00189067

*CONN
*I *490:Q O *C 495.88 148.96 *L 0 *D DFKCNQD1BWP7T
*I *489:I0 I *C 502.04 140 *L 0.00371 *D CKMUX2D1BWP7T

*CAP
1 *384:2 0.00068706
2 *384:3 4.1883e-05
3 *384:4 0.00063831
4 *384:5 0.000523417

*RES
1 *384:2 *384:3 2.78299
2 *384:5 *384:3 8.23042774
3 *489:I0 *384:5 6.98348
4 *384:4 *384:2 8.23042774
5 *490:Q *384:4 6.98348
*END

*D_NET *385 0.00064607

*CONN
*I *492:Q O *C 497 156.8 *L 0 *D DFKCNQD1BWP7T
*I *491:I0 I *C 499.24 155.68 *L 0.00371 *D CKMUX2D1BWP7T

*CAP
1 *492:Q 7.3789e-05
2 *385:2 9.08405e-05
3 *385:3 0.000223781
4 *385:4 0.00025766

*RES
1 *385:4 *385:2 7.59400177
2 *492:Q *385:2 0.252956
3 *385:3 *385:4 0.220742
4 *491:I0 *385:3 6.98346
*END

*D_NET *386 0.00062903

*CONN
*I *494:Q O *C 497.56 165.76 *L 0 *D DFKCNQD1BWP7T
*I *493:I0 I *C 497 163.52 *L 0.00371 *D CKMUX2D1BWP7T

*CAP
1 *386:2 5.04017e-06
2 *386:3 0.00017122
3 *386:4 9.94989e-05
4 *386:5 0.00035327

*RES
1 *386:3 *386:2 0.220791
2 *494:Q *386:2 6.98348808
3 *386:4 *386:3 0.207791
4 *386:5 *386:4 0.818377
5 *493:I0 *386:5 6.98348808
*END

*D_NET *387 0.00163542

*CONN
*I *496:Q O *C 487.48 181.44 *L 0 *D DFKCNQD1BWP7T
*I *495:I0 I *C 493.08 174.72 *L 0.00371 *D CKMUX2D1BWP7T

*CAP
1 *387:2 0.00092296
2 *387:4 4.04055e-05
3 *387:5 0.000672063

*RES
1 *387:5 *387:4 8.85389709
2 *387:2 *387:4 2.53001
3 *387:3 *387:2 7.81485
4 *496:Q *387:3 6.98344
5 *495:I0 *387:5 6.98344
*END

*D_NET *388 0.00233868

*CONN
*I *498:Q O *C 506.52 188.16 *L 0 *D DFKCNQD1BWP7T
*I *497:I0 I *C 488.04 187.04 *L 0.00371 *D CKMUX2D1BWP7T

*CAP
1 *388:2 0.000183537
2 *388:3 0.000169966
3 *388:4 0.00198516

*RES
1 *497:I0 *388:2 6.98356
2 *388:4 *388:2 13.8416538
3 *388:3 *388:4 6.98356
4 *498:Q *388:3 6.98356
*END

*D_NET *389 0.00147932

*CONN
*I *500:Q O *C 508.2 172.48 *L 0 *D DFKCNQD1BWP7T
*I *499:I0 I *C 505.4 179.2 *L 0.00371 *D CKMUX2D1BWP7T

*CAP
1 *389:3 0.00099567
2 *389:4 0.000360316
3 *389:5 0.000123336

*RES
1 *389:3 *389:2 2.9225
2 *389:4 *389:2 1.03917
3 *389:5 *389:4 0.194897
4 *499:I0 *389:5 6.98348808
5 *500:Q *389:3 6.98348808
*END

*D_NET *390 0.00169084

*CONN
*I *504:Q O *C 509.32 157.92 *L 0 *D DFKSND1BWP7T
*I *502:I0 I *C 505.4 166.88 *L 0.00371 *D CKMUX2D1BWP7T

*CAP
1 *390:3 0.00103776
2 *390:5 0.000653075

*RES
1 *390:3 *390:2 2.09123
2 *390:5 *390:2 1.42886
3 *390:5 *390:4 0.428583
4 *502:I0 *390:4 6.98348808
5 *504:Q *390:3 6.98348808
*END

*D_NET *392 0.0014042

*CONN
*I *511:ZN O *C 533.96 171.92 *L 0 *D TIELBWP7T
*I *477:TE I *C 540.12 167.44 *L 0.0039 *D CKLNQD1BWP7T

*CAP
1 *392:2 0.000456068
2 *392:3 0.000409241
3 *392:4 1.9099e-05
4 *392:5 0.00051979

*RES
1 *511:ZN *392:4 6.98353
2 *392:3 *392:4 0.220751
3 *392:3 *392:5 1.01319
4 *392:5 *392:2 8.24338341
5 *392:2 *477:TE 1.51796
*END

*D_NET *393 0.0016253

*CONN
*I *510:Z O *C 560.28 156.8 *L 0 *D CKMUX2D1BWP7T
*I *508:D I *C 557.2375 163.2575 *L 0.0041 *D DFKCNQD1BWP7T

*CAP
1 *508:D 1.75203e-05
2 *393:2 6.42707e-05
3 *393:3 0.000120232
4 *393:4 0.000210037
5 *393:5 0.00096894
6 *393:7 0.000244309

*RES
1 *393:3 *510:Z 0.253004
2 *393:7 *393:3 7.4120903
3 *393:5 *393:7 0.181864
4 *393:5 *393:6 2.1041
5 *393:4 *393:6 0.597505
6 *393:4 *393:2 7.20421
7 *508:D *393:2 0.126445
*END

*D_NET *394 0.00202441

*CONN
*I *509:Z O *C 558.04 134.4 *L 0 *D CKMUX2D1BWP7T
*I *507:D I *C 556.6775 147.5775 *L 0.0041 *D DFKCNQD1BWP7T

*CAP
1 *507:D 1.75424e-05
2 *394:2 6.30587e-05
3 *394:3 0.00122956
4 *394:4 0.000696253
5 *394:5 1.79926e-05

*RES
1 *509:Z *394:4 6.98355
2 *394:4 *394:5 1.88338
3 *394:3 *394:5 0.389792
4 *394:3 *394:2 9.28249931
5 *507:D *394:2 0.126484
*END

*D_NET *395 0.00772371

*CONN
*I *506:Z O *C 559.72 157.92 *L 0 *D CKXOR2D1BWP7T
*I *505:I0 I *C 506.52 155.68 *L 0.00371 *D CKMUX2D1BWP7T

*CAP
1 *395:2 2.18422e-06
2 *395:3 0.000598219
3 *395:4 0.000813643
4 *395:5 0.000396714
5 *395:6 0.00280672
6 *395:7 0.000737666
7 *395:8 2.95512e-06
8 *395:9 0.000453461
9 *395:10 0.000206344
10 *395:11 0.000186601
11 *395:2 *23:132 0.00094638
12 *395:4 *348:74 0.00028605
13 *395:2 *361:28 0.000286799981

*RES
1 *395:8 *395:9 0.20776
2 *395:9 *395:10 2.07816
3 *395:10 *395:11 0.623467
4 *395:11 *395:6 0.363206
5 *395:5 *395:6 12.2443848
6 *506:Z *395:5 6.9835
7 *395:7 *395:8 4.57203
8 *395:2 *395:7 0.20776
9 *395:2 *395:3 4.23404
10 *395:4 *395:3 10.2182
11 *505:I0 *395:4 6.9835
*END

*D_NET *396 0.00118219

*CONN
*I *505:Z O *C 503.16 156.8 *L 0 *D CKMUX2D1BWP7T
*I *504:D I *C 498.68 159.04 *L 0.00536 *D DFKSND1BWP7T

*CAP
1 *396:2 0.000286044
2 *396:4 0.000310357
3 *396:5 0.00058579

*RES
1 *504:D *396:3 6.98351
2 *396:2 *396:3 0.415707
3 *396:5 *396:2 8.64607334
4 *396:5 *396:4 7.607
5 *505:Z *396:4 6.98351
*END

*D_NET *397 0.00052031

*CONN
*I *503:ZN O *C 582.12 173.6 *L 0 *D INVD1BWP7T
*I *501:B2 I *C 582.12 171.36 *L 0.0025 *D IND3D0BWP7T

*CAP
1 *397:3 0.00052031

*RES
1 *397:3 *397:2 1.03917
2 *503:ZN *397:2 6.98348808
3 *501:B2 *397:3 6.98348808
*END

*D_NET *398 0.00073056

*CONN
*I *502:Z O *C 502.04 165.76 *L 0 *D CKMUX2D1BWP7T
*I *500:D I *C 500.6775 171.0975 *L 0.0041 *D DFKCNQD1BWP7T

*CAP
1 *500:D 1.75704e-05
2 *398:2 0.000163672
3 *398:3 6.40767e-05
4 *398:4 0.00048524

*RES
1 *398:3 *398:4 6.98348
2 *398:4 *398:2 8.23042774
3 *398:2 *502:Z 0.505987
4 *500:D *398:3 0.126465
*END

*D_NET *399 0.00127038

*CONN
*I *499:Z O *C 502.04 180.32 *L 0 *D CKMUX2D1BWP7T
*I *498:D I *C 498.9975 186.7775 *L 0.0041 *D DFKCNQD1BWP7T

*CAP
1 *498:D 1.75198e-05
2 *399:2 0.00059552
3 *399:3 0.000593712
4 *399:4 6.36275e-05

*RES
1 *399:4 *399:3 8.91030598
2 *399:3 *399:2 7.75831
3 *399:2 *499:Z 1.26498
4 *498:D *399:4 0.126443
*END

*D_NET *400 0.00092776

*CONN
*I *497:Z O *C 491.4 188.16 *L 0 *D CKMUX2D1BWP7T
*I *496:D I *C 495.0025 182.8225 *L 0.0041 *D DFKCNQD1BWP7T

*CAP
1 *400:2 7.49072e-05
2 *400:3 0.00081872
3 *400:4 3.41305e-05

*RES
1 *497:Z *400:4 6.98352
2 *400:3 *400:4 1.25991
3 *400:3 *400:2 8.21747112
4 *400:2 *496:D 0.126517
*END

*D_NET *401 0.00107351

*CONN
*I *495:Z O *C 489.72 173.6 *L 0 *D CKMUX2D1BWP7T
*I *494:D I *C 490.0375 167.1425 *L 0.0041 *D DFKCNQD1BWP7T

*CAP
1 *401:2 0.000110807
2 *401:3 0.00096271

*RES
1 *495:Z *401:3 6.98355
2 *401:3 *401:2 9.6851902
3 *401:2 *494:D 0.126503
*END

*D_NET *402 0.00197936

*CONN
*I *493:Z O *C 493.64 164.64 *L 0 *D CKMUX2D1BWP7T
*I *492:D I *C 489.4775 155.4175 *L 0.0041 *D DFKCNQD1BWP7T

*CAP
1 *492:D 1.13808e-05
2 *402:2 0.000102201
3 *402:3 0.000167049
4 *402:4 0.00064352
5 *402:5 0.000617587
6 *402:6 0.000437615

*RES
1 *402:4 *402:2 7.81479
2 *492:D *402:2 0.12652
3 *402:6 *402:4 8.23037
4 *402:5 *402:6 6.98351
5 *402:5 *402:3 8.64607334
6 *402:3 *493:Z 0.505946
*END

*D_NET *403 0.00130526

*CONN
*I *491:Z O *C 502.6 156.8 *L 0 *D CKMUX2D1BWP7T
*I *490:D I *C 503.4025 147.5775 *L 0.0041 *D DFKCNQD1BWP7T

*CAP
1 *490:D 1.72324e-05
2 *403:2 7.0088e-05
3 *403:3 0.00066004
4 *403:4 0.000557904

*RES
1 *490:D *403:3 0.126492
2 *403:3 *403:2 8.35660553
3 *403:6 *403:2 0.0946137
4 *403:4 *403:6 0.181959
5 *403:4 *403:5 1.0521
6 *491:Z *403:5 6.98343
*END

*D_NET *404 0.00175137

*CONN
*I *489:Z O *C 505.4 141.12 *L 0 *D CKMUX2D1BWP7T
*I *488:D I *C 514.1175 143.6225 *L 0.0041 *D DFKCNQD1BWP7T

*CAP
1 *489:Z 0.00085303
2 *404:2 5.36406e-05
3 *404:3 0.000110639
4 *404:4 0.000417957
5 *404:5 0.000316103

*RES
1 *404:3 *488:D 0.126546
2 *404:5 *404:3 7.41207
3 *404:4 *404:5 0.207855
4 *404:4 *404:2 7.80182505
5 *489:Z *404:2 3.54199
*END

*D_NET *405 0.0012777

*CONN
*I *487:Z O *C 513.8 141.12 *L 0 *D CKMUX2D1BWP7T
*I *486:D I *C 514.1175 147.5775 *L 0.0041 *D DFKCNQD1BWP7T

*CAP
1 *486:D 1.75438e-05
2 *405:2 6.40161e-05
3 *405:3 0.000153343
4 *405:4 0.000101932
5 *405:5 0.00094086

*RES
1 *405:3 *405:4 0.194915
2 *405:4 *405:5 0.207804
3 *405:5 *405:2 9.49032211
4 *486:D *405:2 0.126565
5 *487:Z *405:3 6.9835
*END

*D_NET *406 0.0022487

*CONN
*I *485:Z O *C 518.28 150.08 *L 0 *D CKMUX2D1BWP7T
*I *484:D I *C 526.4375 147.5775 *L 0.0041 *D DFKCNQD1BWP7T

*CAP
1 *406:2 9.78245e-05
2 *406:3 0.000486517
3 *406:5 0.000166484
4 *406:6 0.00149788

*RES
1 *485:Z *406:4 6.9835
2 *406:3 *406:4 1.03918
3 *406:6 *406:3 9.893013
4 *406:5 *406:6 6.9835
5 *406:2 *406:5 6.9835
6 *484:D *406:2 0.0329083
*END

*D_NET *407 0.00130135

*CONN
*I *483:Z O *C 527.24 142.24 *L 0 *D CKMUX2D1BWP7T
*I *482:D I *C 529.2375 151.4625 *L 0.0041 *D DFKCNQD1BWP7T

*CAP
1 *407:2 0.000105217
2 *407:3 0.000347005
3 *407:4 0.000233351
4 *407:5 0.00061577

*RES
1 *483:Z *407:3 6.98354
2 *407:3 *407:4 0.81839
3 *407:4 *407:5 0.623504
4 *407:5 *407:2 8.65902996
5 *407:2 *482:D 0.126445
*END

*D_NET *408 0.00203665

*CONN
*I *481:Z O *C 547.96 148.96 *L 0 *D CKMUX2D1BWP7T
*I *480:D I *C 542.1175 155.4175 *L 0.0041 *D DFKCNQD1BWP7T

*CAP
1 *480:D 1.7543e-05
2 *408:2 4.69208e-05
3 *408:3 0.000342171
4 *408:4 0.000360189
5 *408:5 0.000431582
6 *408:6 6.41009e-05
7 *408:7 0.000316841
8 *408:8 0.00045731

*RES
1 *408:2 *408:3 0.912988
2 *408:5 *408:3 1.16525
3 *481:Z *408:5 6.98346
4 *408:4 *408:2 7.88009691
5 *408:8 *408:4 1.18161
6 *408:7 *408:8 6.98346
7 *408:7 *408:6 7.60691
8 *480:D *408:6 0.126493
*END

*D_NET *409 0.00074031

*CONN
*I *479:Z O *C 555.8 141.12 *L 0 *D CKMUX2D1BWP7T
*I *478:D I *C 555.5575 143.6225 *L 0.0041 *D DFKCNQD1BWP7T

*CAP
1 *409:2 8.44369e-05
2 *409:3 0.00065587

*RES
1 *479:Z *409:3 6.98354
2 *409:3 *409:2 8.02260399
3 *409:2 *478:D 0.126455
*END

*D_NET *410 0.00557776

*CONN
*I *501:ZN O *C 581.8225 170.41 *L 0 *D IND3D0BWP7T
*I *477:E I *C 541.24 167.44 *L 0.00395 *D CKLNQD1BWP7T

*CAP
1 *501:ZN 6.3013e-05
2 *410:2 0.00254911
3 *410:3 0.000709052
4 *410:4 0.000474504
5 *410:5 5.25886e-05
6 *410:6 5.4728e-05
7 *410:7 0.000803999
8 *410:8 4.67541e-05
9 *410:9 0.000406667
10 *410:10 1.97596e-05
11 *410:2 *350:33 0.00039757

*RES
1 *410:10 *410:3 2.74185
2 *410:2 *410:3 10.9875059
3 *410:5 *410:2 0.207893
4 *410:5 *410:6 0.260202
5 *410:4 *410:6 8.58080387
6 *410:7 *410:4 2.49388
7 *477:E *410:7 6.98354
8 *410:9 *410:10 6.98354
9 *410:9 *410:8 8.02268
10 *501:ZN *410:8 0.252993
*END

*D_NET *411 0.00126371

*CONN
*I *518:ZN O *C 523.88 140 *L 0 *D NR2D0BWP7T
*I *515:B1 I *C 522.2 132.72 *L 0.00262 *D IND4D0BWP7T

*CAP
1 *411:2 1.13847e-05
2 *411:3 0.000319835
3 *411:4 0.000206011
4 *411:5 0.00072648

*RES
1 *411:4 *411:3 0.62348
2 *411:3 *411:2 0.636374
3 *518:ZN *411:2 6.98348808
4 *411:5 *411:4 1.64965
5 *515:B1 *411:5 6.98348808
*END

*D_NET *412 0.00344705

*CONN
*I *517:ZN O *C 553 132.72 *L 0 *D NR4D0BWP7T
*I *515:B3 I *C 523.88 132.16 *L 0.00245 *D IND4D0BWP7T

*CAP
1 *515:B3 0.00228045
2 *412:2 7.80854e-05
3 *412:3 0.00065969
4 *412:4 0.00041395
5 *412:5 1.48585e-05

*RES
1 *412:4 *412:5 0.428624
2 *517:ZN *412:5 6.98344
3 *412:4 *412:2 7.1783371
4 *412:2 *412:3 2.86252
5 *515:B3 *412:3 9.78756905
*END

*D_NET *413 0.00240327

*CONN
*I *516:ZN O *C 531.16 140.56 *L 0 *D NR4D0BWP7T
*I *515:B2 I *C 522.76 132.16 *L 0.00264 *D IND4D0BWP7T

*CAP
1 *413:2 0.00095017
2 *413:3 4.03788e-05
3 *413:4 0.000598809
4 *413:5 0.000813912

*RES
1 *413:5 *413:3 8.43825054
2 *413:2 *413:3 3.795
3 *413:4 *413:2 8.02262
4 *515:B2 *413:4 6.98355
5 *516:ZN *413:5 6.98355
*END

*D_NET *414 0.00451826

*CONN
*I *515:ZN O *C 523.32 133.28 *L 0 *D IND4D0BWP7T
*I *514:A1 I *C 494.2 132.72 *L 0.00334 *D NR4D0BWP7T

*CAP
1 *514:A1 0.000199828
2 *414:2 0.000932953
3 *414:3 5.95975e-05
4 *414:4 0.000175335
5 *414:5 0.0002667
6 *414:6 0.000986029
7 *414:7 0.00112169
8 *414:8 0.000127667
9 *414:9 0.00064847

*RES
1 *514:A1 *414:3 0.758943
2 *414:5 *414:3 7.39917
3 *414:7 *414:5 8.86678
4 *414:6 *414:7 0.103894
5 *414:6 *414:8 2.88359
6 *414:8 *414:9 0.103894
7 *414:9 *414:2 2.41622
8 *414:4 *414:2 9.98356438
9 *515:ZN *414:4 6.98344
*END

*D_NET *415 0.00154459

*CONN
*I *514:ZN O *C 491.96 132.72 *L 0 *D NR4D0BWP7T
*I *513:A1 I *C 494.2 140 *L 0.00252 *D OR2D0BWP7T

*CAP
1 *415:2 1.64694e-05
2 *415:3 0.00084986
3 *415:4 9.2073e-07
4 *415:5 0.00020448
5 *415:6 8.94405e-05
6 *415:7 0.000383426

*RES
1 *513:A1 *415:2 6.98348808
2 *415:3 *415:2 2.29902
3 *415:6 *415:3 0.207791
4 *415:7 *415:6 0.831271
5 *415:7 *415:4 0.181897
6 *415:5 *415:4 0.220791
7 *514:ZN *415:5 6.98348808
*END

